@relation InstanceResultListener

@attribute Key_Dataset {haberman-weka.filters.unsupervised.attribute.Discretize-B10-M-1.0-Rfirst-last-precision6-weka.filters.unsupervised.attribute.NumericToNominal-Rfirst-last}
@attribute Key_Run {1,2,3,4,5,6,7,8,9,10}
@attribute Key_Fold {1,2,3,4,5,6,7,8,9,10}
@attribute Key_Scheme {weka.classifiers.trees.J48,weka.classifiers.bayes.NaiveBayes,weka.classifiers.lazy.IBk}
@attribute Key_Scheme_options {'-C 0.25 -M 2','','-K 1 -W 0 -A \"weka.core.neighboursearch.LinearNNSearch -A \\\"weka.core.EuclideanDistance -R first-last\\\"\"'}
@attribute Key_Scheme_version_ID {-217733168393644444,5995231201785697655,-3080186098777067172}
@attribute Date_time numeric
@attribute Number_of_training_instances numeric
@attribute Number_of_testing_instances numeric
@attribute Number_correct numeric
@attribute Number_incorrect numeric
@attribute Number_unclassified numeric
@attribute Percent_correct numeric
@attribute Percent_incorrect numeric
@attribute Percent_unclassified numeric
@attribute Kappa_statistic numeric
@attribute Mean_absolute_error numeric
@attribute Root_mean_squared_error numeric
@attribute Relative_absolute_error numeric
@attribute Root_relative_squared_error numeric
@attribute SF_prior_entropy numeric
@attribute SF_scheme_entropy numeric
@attribute SF_entropy_gain numeric
@attribute SF_mean_prior_entropy numeric
@attribute SF_mean_scheme_entropy numeric
@attribute SF_mean_entropy_gain numeric
@attribute KB_information numeric
@attribute KB_mean_information numeric
@attribute KB_relative_information numeric
@attribute True_positive_rate numeric
@attribute Num_true_positives numeric
@attribute False_positive_rate numeric
@attribute Num_false_positives numeric
@attribute True_negative_rate numeric
@attribute Num_true_negatives numeric
@attribute False_negative_rate numeric
@attribute Num_false_negatives numeric
@attribute IR_precision numeric
@attribute IR_recall numeric
@attribute F_measure numeric
@attribute Matthews_correlation numeric
@attribute Area_under_ROC numeric
@attribute Area_under_PRC numeric
@attribute Weighted_avg_true_positive_rate numeric
@attribute Weighted_avg_false_positive_rate numeric
@attribute Weighted_avg_true_negative_rate numeric
@attribute Weighted_avg_false_negative_rate numeric
@attribute Weighted_avg_IR_precision numeric
@attribute Weighted_avg_IR_recall numeric
@attribute Weighted_avg_F_measure numeric
@attribute Weighted_avg_matthews_correlation numeric
@attribute Weighted_avg_area_under_ROC numeric
@attribute Weighted_avg_area_under_PRC numeric
@attribute Unweighted_macro_avg_F_measure numeric
@attribute Unweighted_micro_avg_F_measure numeric
@attribute Elapsed_Time_training numeric
@attribute Elapsed_Time_testing numeric
@attribute UserCPU_Time_training numeric
@attribute UserCPU_Time_testing numeric
@attribute UserCPU_Time_millis_training numeric
@attribute UserCPU_Time_millis_testing numeric
@attribute Serialized_Model_Size numeric
@attribute Serialized_Train_Set_Size numeric
@attribute Serialized_Test_Set_Size numeric
@attribute Coverage_of_Test_Cases_By_Regions numeric
@attribute Size_of_Predicted_Regions numeric
@attribute Summary {'Number of leaves: 19\nSize of the tree: 21\n','Number of leaves: 1\nSize of the tree: 1\n','Number of leaves: 10\nSize of the tree: 11\n','Number of leaves: 28\nSize of the tree: 31\n'}
@attribute measureTreeSize numeric
@attribute measureNumLeaves numeric
@attribute measureNumRules numeric

@data

haberman-weka.filters.unsupervised.attribute.Discretize-B10-M-1.0-Rfirst-last-precision6-weka.filters.unsupervised.attribute.NumericToNominal-Rfirst-last,1,1,weka.classifiers.trees.J48,'-C 0.25 -M 2',-217733168393644444,20260418.0439,275,31,22,9,0,70.967742,29.032258,0,0.085246,0.382488,0.486953,95.422097,107.093051,27.024229,1100.790789,-1073.76656,0.871749,35.50938,-34.637631,0.266862,0.008608,0.987491,0.954545,21,0.888889,8,0.111111,1,0.045455,1,0.724138,0.954545,0.823529,0.12131,0.492424,0.705833,0.709677,0.644021,0.355979,0.290323,0.659066,0.709677,0.637226,0.12131,0.492424,0.591965,0.502674,0.709677,0.001,0,0,0,0,0,7555,19192,4308,96.774194,96.774194,'Number of leaves: 19\nSize of the tree: 21\n',21,19,19
haberman-weka.filters.unsupervised.attribute.Discretize-B10-M-1.0-Rfirst-last-precision6-weka.filters.unsupervised.attribute.NumericToNominal-Rfirst-last,1,2,weka.classifiers.trees.J48,'-C 0.25 -M 2',-217733168393644444,20260418.0439,275,31,23,8,0,74.193548,25.806452,0,0,0.38651,0.437632,99.788444,99.992718,25.547654,25.544461,0.003193,0.824118,0.824015,0.000103,0.049949,0.001611,0.195512,1,23,1,8,0,0,0,0,0.741935,1,0.851852,?,0.5,0.741935,0.741935,0.741935,0.258065,0.258065,?,0.741935,?,?,0.5,0.617066,?,0.741935,0,0,0,0,0,0,3866,19192,4308,100,100,'Number of leaves: 1\nSize of the tree: 1\n',1,1,1
haberman-weka.filters.unsupervised.attribute.Discretize-B10-M-1.0-Rfirst-last-precision6-weka.filters.unsupervised.attribute.NumericToNominal-Rfirst-last,1,3,weka.classifiers.trees.J48,'-C 0.25 -M 2',-217733168393644444,20260418.0439,275,31,23,8,0,74.193548,25.806452,0,0,0.38651,0.437632,99.788444,99.992718,25.547654,25.544461,0.003193,0.824118,0.824015,0.000103,0.049949,0.001611,0.195512,1,23,1,8,0,0,0,0,0.741935,1,0.851852,?,0.5,0.741935,0.741935,0.741935,0.258065,0.258065,?,0.741935,?,?,0.5,0.617066,?,0.741935,0,0.001,0,0,0,0,3866,19192,4308,100,100,'Number of leaves: 1\nSize of the tree: 1\n',1,1,1
haberman-weka.filters.unsupervised.attribute.Discretize-B10-M-1.0-Rfirst-last-precision6-weka.filters.unsupervised.attribute.NumericToNominal-Rfirst-last,1,4,weka.classifiers.trees.J48,'-C 0.25 -M 2',-217733168393644444,20260418.0439,275,31,22,9,0,70.967742,29.032258,0,-0.060837,0.364859,0.457686,94.198592,104.574841,25.547654,27.395786,-1.848132,0.824118,0.883735,-0.059617,0.715969,0.023096,2.802486,0.956522,22,1,8,0,0,0.043478,1,0.733333,0.956522,0.830189,-0.107676,0.538043,0.757895,0.709677,0.753156,0.246844,0.290323,0.544086,0.709677,0.615946,-0.107676,0.538043,0.636711,0.415094,0.709677,0,0,0,0,0,0,7555,19192,4308,100,100,'Number of leaves: 19\nSize of the tree: 21\n',21,19,19
haberman-weka.filters.unsupervised.attribute.Discretize-B10-M-1.0-Rfirst-last-precision6-weka.filters.unsupervised.attribute.NumericToNominal-Rfirst-last,1,5,weka.classifiers.trees.J48,'-C 0.25 -M 2',-217733168393644444,20260418.0439,275,31,23,8,0,74.193548,25.806452,0,0,0.38651,0.437632,99.788444,99.992718,25.547654,25.544461,0.003193,0.824118,0.824015,0.000103,0.049949,0.001611,0.195512,1,23,1,8,0,0,0,0,0.741935,1,0.851852,?,0.5,0.741935,0.741935,0.741935,0.258065,0.258065,?,0.741935,?,?,0.5,0.617066,?,0.741935,0,0,0,0,0,0,3866,19192,4308,100,100,'Number of leaves: 1\nSize of the tree: 1\n',1,1,1
haberman-weka.filters.unsupervised.attribute.Discretize-B10-M-1.0-Rfirst-last-precision6-weka.filters.unsupervised.attribute.NumericToNominal-Rfirst-last,1,6,weka.classifiers.trees.J48,'-C 0.25 -M 2',-217733168393644444,20260418.0439,275,31,23,8,0,74.193548,25.806452,0,0,0.38651,0.437632,99.788444,99.992718,25.547654,25.544461,0.003193,0.824118,0.824015,0.000103,0.049949,0.001611,0.195512,1,23,1,8,0,0,0,0,0.741935,1,0.851852,?,0.5,0.741935,0.741935,0.741935,0.258065,0.258065,?,0.741935,?,?,0.5,0.617066,?,0.741935,0,0,0,0,0,0,3866,19192,4308,100,100,'Number of leaves: 1\nSize of the tree: 1\n',1,1,1
haberman-weka.filters.unsupervised.attribute.Discretize-B10-M-1.0-Rfirst-last-precision6-weka.filters.unsupervised.attribute.NumericToNominal-Rfirst-last,1,7,weka.classifiers.trees.J48,'-C 0.25 -M 2',-217733168393644444,20260418.0439,276,30,22,8,0,73.333333,26.666667,0,0,0.390097,0.442222,99.797724,100.00115,25.099248,25.099747,-0.000499,0.836642,0.836658,-0.000017,0.046581,0.001553,0.185586,1,22,1,8,0,0,0,0,0.733333,1,0.846154,?,0.5,0.733333,0.733333,0.733333,0.266667,0.266667,?,0.733333,?,?,0.5,0.608889,?,0.733333,0,0,0.015625,0,15.625,0,3866,19253,4247,100,100,'Number of leaves: 1\nSize of the tree: 1\n',1,1,1
haberman-weka.filters.unsupervised.attribute.Discretize-B10-M-1.0-Rfirst-last-precision6-weka.filters.unsupervised.attribute.NumericToNominal-Rfirst-last,1,8,weka.classifiers.trees.J48,'-C 0.25 -M 2',-217733168393644444,20260418.0439,276,30,21,9,0,70,30,0,0.042553,0.370762,0.43908,94.851453,99.290602,25.099248,24.618391,0.480857,0.836642,0.820613,0.016029,0.573764,0.019125,2.285982,0.909091,20,0.875,7,0.125,1,0.090909,2,0.740741,0.909091,0.816327,0.050252,0.633523,0.795517,0.7,0.665909,0.334091,0.3,0.632099,0.7,0.647124,0.050252,0.633523,0.696712,0.499072,0.7,0.001,0,0,0,0,0,7555,19253,4247,100,100,'Number of leaves: 19\nSize of the tree: 21\n',21,19,19
haberman-weka.filters.unsupervised.attribute.Discretize-B10-M-1.0-Rfirst-last-precision6-weka.filters.unsupervised.attribute.NumericToNominal-Rfirst-last,1,9,weka.classifiers.trees.J48,'-C 0.25 -M 2',-217733168393644444,20260418.0439,276,30,22,8,0,73.333333,26.666667,0,0,0.390097,0.442222,99.797724,100.00115,25.099248,25.099747,-0.000499,0.836642,0.836658,-0.000017,0.046581,0.001553,0.185586,1,22,1,8,0,0,0,0,0.733333,1,0.846154,?,0.5,0.733333,0.733333,0.733333,0.266667,0.266667,?,0.733333,?,?,0.5,0.608889,?,0.733333,0,0,0,0,0,0,3866,19253,4247,100,100,'Number of leaves: 1\nSize of the tree: 1\n',1,1,1
haberman-weka.filters.unsupervised.attribute.Discretize-B10-M-1.0-Rfirst-last-precision6-weka.filters.unsupervised.attribute.NumericToNominal-Rfirst-last,1,10,weka.classifiers.trees.J48,'-C 0.25 -M 2',-217733168393644444,20260418.0439,276,30,22,8,0,73.333333,26.666667,0,0,0.390097,0.442222,99.797724,100.00115,25.099248,25.099747,-0.000499,0.836642,0.836658,-0.000017,0.046581,0.001553,0.185586,1,22,1,8,0,0,0,0,0.733333,1,0.846154,?,0.5,0.733333,0.733333,0.733333,0.266667,0.266667,?,0.733333,?,?,0.5,0.608889,?,0.733333,0,0,0,0,0,0,3866,19253,4247,100,100,'Number of leaves: 1\nSize of the tree: 1\n',1,1,1
haberman-weka.filters.unsupervised.attribute.Discretize-B10-M-1.0-Rfirst-last-precision6-weka.filters.unsupervised.attribute.NumericToNominal-Rfirst-last,2,1,weka.classifiers.trees.J48,'-C 0.25 -M 2',-217733168393644444,20260418.0439,275,31,21,10,0,67.741935,32.258065,0,-0.115108,0.396043,0.477649,102.249706,109.136126,25.547654,1099.648692,-1074.101038,0.824118,35.472538,-34.648421,-1.93871,-0.062539,-7.588602,0.913043,21,1,8,0,0,0.086957,2,0.724138,0.913043,0.807692,-0.154881,0.456522,0.745925,0.677419,0.764376,0.235624,0.322581,0.537264,0.677419,0.599256,-0.154881,0.456522,0.617821,0.403846,0.677419,0.003,0,0,0,0,0,7555,19192,4308,96.774194,98.387097,'Number of leaves: 19\nSize of the tree: 21\n',21,19,19
haberman-weka.filters.unsupervised.attribute.Discretize-B10-M-1.0-Rfirst-last-precision6-weka.filters.unsupervised.attribute.NumericToNominal-Rfirst-last,2,2,weka.classifiers.trees.J48,'-C 0.25 -M 2',-217733168393644444,20260418.0439,275,31,23,8,0,74.193548,25.806452,0,0,0.38651,0.437632,99.788444,99.992718,25.547654,25.544461,0.003193,0.824118,0.824015,0.000103,0.049949,0.001611,0.195512,1,23,1,8,0,0,0,0,0.741935,1,0.851852,?,0.5,0.741935,0.741935,0.741935,0.258065,0.258065,?,0.741935,?,?,0.5,0.617066,?,0.741935,0.001,0,0,0,0,0,3866,19192,4308,100,100,'Number of leaves: 1\nSize of the tree: 1\n',1,1,1
haberman-weka.filters.unsupervised.attribute.Discretize-B10-M-1.0-Rfirst-last-precision6-weka.filters.unsupervised.attribute.NumericToNominal-Rfirst-last,2,3,weka.classifiers.trees.J48,'-C 0.25 -M 2',-217733168393644444,20260418.0439,275,31,23,8,0,74.193548,25.806452,0,0,0.38651,0.437632,99.788444,99.992718,25.547654,25.544461,0.003193,0.824118,0.824015,0.000103,0.049949,0.001611,0.195512,1,23,1,8,0,0,0,0,0.741935,1,0.851852,?,0.5,0.741935,0.741935,0.741935,0.258065,0.258065,?,0.741935,?,?,0.5,0.617066,?,0.741935,0,0,0,0,0,0,3866,19192,4308,100,100,'Number of leaves: 1\nSize of the tree: 1\n',1,1,1
haberman-weka.filters.unsupervised.attribute.Discretize-B10-M-1.0-Rfirst-last-precision6-weka.filters.unsupervised.attribute.NumericToNominal-Rfirst-last,2,4,weka.classifiers.trees.J48,'-C 0.25 -M 2',-217733168393644444,20260418.0439,275,31,23,8,0,74.193548,25.806452,0,0,0.38651,0.437632,99.788444,99.992718,25.547654,25.544461,0.003193,0.824118,0.824015,0.000103,0.049949,0.001611,0.195512,1,23,1,8,0,0,0,0,0.741935,1,0.851852,?,0.5,0.741935,0.741935,0.741935,0.258065,0.258065,?,0.741935,?,?,0.5,0.617066,?,0.741935,0,0,0,0,0,0,3866,19192,4308,100,100,'Number of leaves: 1\nSize of the tree: 1\n',1,1,1
haberman-weka.filters.unsupervised.attribute.Discretize-B10-M-1.0-Rfirst-last-precision6-weka.filters.unsupervised.attribute.NumericToNominal-Rfirst-last,2,5,weka.classifiers.trees.J48,'-C 0.25 -M 2',-217733168393644444,20260418.0439,275,31,22,9,0,70.967742,29.032258,0,0.136223,0.371326,0.444531,95.868306,101.568985,25.547654,26.004195,-0.45654,0.824118,0.838845,-0.014727,0.306229,0.009878,1.198659,0.869565,20,0.75,6,0.25,2,0.130435,3,0.769231,0.869565,0.816327,0.142247,0.586957,0.783431,0.709677,0.590112,0.409888,0.290323,0.673945,0.709677,0.685066,0.142247,0.586957,0.66251,0.562009,0.709677,0.001,0,0,0,0,0,5831,19192,4308,100,100,'Number of leaves: 10\nSize of the tree: 11\n',11,10,10
haberman-weka.filters.unsupervised.attribute.Discretize-B10-M-1.0-Rfirst-last-precision6-weka.filters.unsupervised.attribute.NumericToNominal-Rfirst-last,2,6,weka.classifiers.trees.J48,'-C 0.25 -M 2',-217733168393644444,20260418.0439,275,31,22,9,0,70.967742,29.032258,0,0,0.400117,0.454805,99.820083,100.022991,27.024229,27.035207,-0.010978,0.871749,0.872103,-0.000354,0.043744,0.001411,0.16187,1,22,1,9,0,0,0,0,0.709677,1,0.830189,?,0.5,0.709677,0.709677,0.709677,0.290323,0.290323,?,0.709677,?,?,0.5,0.587929,?,0.709677,0,0,0,0,0,0,3866,19192,4308,100,100,'Number of leaves: 1\nSize of the tree: 1\n',1,1,1
haberman-weka.filters.unsupervised.attribute.Discretize-B10-M-1.0-Rfirst-last-precision6-weka.filters.unsupervised.attribute.NumericToNominal-Rfirst-last,2,7,weka.classifiers.trees.J48,'-C 0.25 -M 2',-217733168393644444,20260418.0439,276,30,22,8,0,73.333333,26.666667,0,0,0.390097,0.442222,99.797724,100.00115,25.099248,25.099747,-0.000499,0.836642,0.836658,-0.000017,0.046581,0.001553,0.185586,1,22,1,8,0,0,0,0,0.733333,1,0.846154,?,0.5,0.733333,0.733333,0.733333,0.266667,0.266667,?,0.733333,?,?,0.5,0.608889,?,0.733333,0.001,0,0,0,0,0,3866,19253,4247,100,100,'Number of leaves: 1\nSize of the tree: 1\n',1,1,1
haberman-weka.filters.unsupervised.attribute.Discretize-B10-M-1.0-Rfirst-last-precision6-weka.filters.unsupervised.attribute.NumericToNominal-Rfirst-last,2,8,weka.classifiers.trees.J48,'-C 0.25 -M 2',-217733168393644444,20260418.0439,276,30,22,8,0,73.333333,26.666667,0,0,0.390097,0.442222,99.797724,100.00115,25.099248,25.099747,-0.000499,0.836642,0.836658,-0.000017,0.046581,0.001553,0.185586,1,22,1,8,0,0,0,0,0.733333,1,0.846154,?,0.5,0.733333,0.733333,0.733333,0.266667,0.266667,?,0.733333,?,?,0.5,0.608889,?,0.733333,0,0,0,0,0,0,3866,19253,4247,100,100,'Number of leaves: 1\nSize of the tree: 1\n',1,1,1
haberman-weka.filters.unsupervised.attribute.Discretize-B10-M-1.0-Rfirst-last-precision6-weka.filters.unsupervised.attribute.NumericToNominal-Rfirst-last,2,9,weka.classifiers.trees.J48,'-C 0.25 -M 2',-217733168393644444,20260418.0439,276,30,22,8,0,73.333333,26.666667,0,0,0.390097,0.442222,99.797724,100.00115,25.099248,25.099747,-0.000499,0.836642,0.836658,-0.000017,0.046581,0.001553,0.185586,1,22,1,8,0,0,0,0,0.733333,1,0.846154,?,0.5,0.733333,0.733333,0.733333,0.266667,0.266667,?,0.733333,?,?,0.5,0.608889,?,0.733333,0.001,0,0,0,0,0,3866,19253,4247,100,100,'Number of leaves: 1\nSize of the tree: 1\n',1,1,1
haberman-weka.filters.unsupervised.attribute.Discretize-B10-M-1.0-Rfirst-last-precision6-weka.filters.unsupervised.attribute.NumericToNominal-Rfirst-last,2,10,weka.classifiers.trees.J48,'-C 0.25 -M 2',-217733168393644444,20260418.0439,276,30,22,8,0,73.333333,26.666667,0,0,0.390097,0.442222,99.797724,100.00115,25.099248,25.099747,-0.000499,0.836642,0.836658,-0.000017,0.046581,0.001553,0.185586,1,22,1,8,0,0,0,0,0.733333,1,0.846154,?,0.5,0.733333,0.733333,0.733333,0.266667,0.266667,?,0.733333,?,?,0.5,0.608889,?,0.733333,0,0,0,0,0,0,3866,19253,4247,100,100,'Number of leaves: 1\nSize of the tree: 1\n',1,1,1
haberman-weka.filters.unsupervised.attribute.Discretize-B10-M-1.0-Rfirst-last-precision6-weka.filters.unsupervised.attribute.NumericToNominal-Rfirst-last,3,1,weka.classifiers.trees.J48,'-C 0.25 -M 2',-217733168393644444,20260418.0439,275,31,23,8,0,74.193548,25.806452,0,0,0.38651,0.437632,99.788444,99.992718,25.547654,25.544461,0.003193,0.824118,0.824015,0.000103,0.049949,0.001611,0.195512,1,23,1,8,0,0,0,0,0.741935,1,0.851852,?,0.5,0.741935,0.741935,0.741935,0.258065,0.258065,?,0.741935,?,?,0.5,0.617066,?,0.741935,0.001,0,0,0,0,0,3866,19192,4308,100,100,'Number of leaves: 1\nSize of the tree: 1\n',1,1,1
haberman-weka.filters.unsupervised.attribute.Discretize-B10-M-1.0-Rfirst-last-precision6-weka.filters.unsupervised.attribute.NumericToNominal-Rfirst-last,3,2,weka.classifiers.trees.J48,'-C 0.25 -M 2',-217733168393644444,20260418.0439,275,31,22,9,0,70.967742,29.032258,0,-0.060837,0.364959,0.444665,94.224352,101.599642,25.547654,26.111399,-0.563745,0.824118,0.842303,-0.018185,0.733466,0.02366,2.870971,0.956522,22,1,8,0,0,0.043478,1,0.733333,0.956522,0.830189,-0.107676,0.554348,0.764923,0.709677,0.753156,0.246844,0.290323,0.544086,0.709677,0.615946,-0.107676,0.554348,0.643278,0.415094,0.709677,0.001,0,0,0,0,0,5831,19192,4308,100,100,'Number of leaves: 10\nSize of the tree: 11\n',11,10,10
haberman-weka.filters.unsupervised.attribute.Discretize-B10-M-1.0-Rfirst-last-precision6-weka.filters.unsupervised.attribute.NumericToNominal-Rfirst-last,3,3,weka.classifiers.trees.J48,'-C 0.25 -M 2',-217733168393644444,20260418.0439,275,31,23,8,0,74.193548,25.806452,0,0,0.38651,0.437632,99.788444,99.992718,25.547654,25.544461,0.003193,0.824118,0.824015,0.000103,0.049949,0.001611,0.195512,1,23,1,8,0,0,0,0,0.741935,1,0.851852,?,0.5,0.741935,0.741935,0.741935,0.258065,0.258065,?,0.741935,?,?,0.5,0.617066,?,0.741935,0,0,0,0,0,0,3866,19192,4308,100,100,'Number of leaves: 1\nSize of the tree: 1\n',1,1,1
haberman-weka.filters.unsupervised.attribute.Discretize-B10-M-1.0-Rfirst-last-precision6-weka.filters.unsupervised.attribute.NumericToNominal-Rfirst-last,3,4,weka.classifiers.trees.J48,'-C 0.25 -M 2',-217733168393644444,20260418.0439,275,31,23,8,0,74.193548,25.806452,0,0,0.38651,0.437632,99.788444,99.992718,25.547654,25.544461,0.003193,0.824118,0.824015,0.000103,0.049949,0.001611,0.195512,1,23,1,8,0,0,0,0,0.741935,1,0.851852,?,0.5,0.741935,0.741935,0.741935,0.258065,0.258065,?,0.741935,?,?,0.5,0.617066,?,0.741935,0,0,0,0,0,0,3866,19192,4308,100,100,'Number of leaves: 1\nSize of the tree: 1\n',1,1,1
haberman-weka.filters.unsupervised.attribute.Discretize-B10-M-1.0-Rfirst-last-precision6-weka.filters.unsupervised.attribute.NumericToNominal-Rfirst-last,3,5,weka.classifiers.trees.J48,'-C 0.25 -M 2',-217733168393644444,20260418.0439,275,31,23,8,0,74.193548,25.806452,0,0,0.38651,0.437632,99.788444,99.992718,25.547654,25.544461,0.003193,0.824118,0.824015,0.000103,0.049949,0.001611,0.195512,1,23,1,8,0,0,0,0,0.741935,1,0.851852,?,0.5,0.741935,0.741935,0.741935,0.258065,0.258065,?,0.741935,?,?,0.5,0.617066,?,0.741935,0,0,0,0,0,0,3866,19192,4308,100,100,'Number of leaves: 1\nSize of the tree: 1\n',1,1,1
haberman-weka.filters.unsupervised.attribute.Discretize-B10-M-1.0-Rfirst-last-precision6-weka.filters.unsupervised.attribute.NumericToNominal-Rfirst-last,3,6,weka.classifiers.trees.J48,'-C 0.25 -M 2',-217733168393644444,20260418.0439,275,31,21,10,0,67.741935,32.258065,0,0.162162,0.40578,0.477902,101.232801,105.102608,27.024229,29.288473,-2.264244,0.871749,0.944789,-0.07304,-2.079525,-0.067081,-7.695038,0.818182,18,0.666667,6,0.333333,3,0.181818,4,0.75,0.818182,0.782609,0.164488,0.537879,0.720605,0.677419,0.525904,0.474096,0.322581,0.656682,0.677419,0.664271,0.164488,0.537879,0.615976,0.578804,0.677419,0,0,0,0,0,0,5831,19192,4308,100,100,'Number of leaves: 10\nSize of the tree: 11\n',11,10,10
haberman-weka.filters.unsupervised.attribute.Discretize-B10-M-1.0-Rfirst-last-precision6-weka.filters.unsupervised.attribute.NumericToNominal-Rfirst-last,3,7,weka.classifiers.trees.J48,'-C 0.25 -M 2',-217733168393644444,20260418.0439,276,30,22,8,0,73.333333,26.666667,0,0,0.390097,0.442222,99.797724,100.00115,25.099248,25.099747,-0.000499,0.836642,0.836658,-0.000017,0.046581,0.001553,0.185586,1,22,1,8,0,0,0,0,0.733333,1,0.846154,?,0.5,0.733333,0.733333,0.733333,0.266667,0.266667,?,0.733333,?,?,0.5,0.608889,?,0.733333,0,0,0,0,0,0,3866,19253,4247,100,100,'Number of leaves: 1\nSize of the tree: 1\n',1,1,1
haberman-weka.filters.unsupervised.attribute.Discretize-B10-M-1.0-Rfirst-last-precision6-weka.filters.unsupervised.attribute.NumericToNominal-Rfirst-last,3,8,weka.classifiers.trees.J48,'-C 0.25 -M 2',-217733168393644444,20260418.0439,276,30,21,9,0,70,30,0,0.042553,0.367633,0.461002,94.050775,104.247878,25.099248,1097.033341,-1071.934093,0.836642,36.567778,-35.731136,1.102914,0.036764,4.394212,0.909091,20,0.875,7,0.125,1,0.090909,2,0.740741,0.909091,0.816327,0.050252,0.616477,0.786101,0.7,0.665909,0.334091,0.3,0.632099,0.7,0.647124,0.050252,0.616477,0.670919,0.499072,0.7,0,0,0,0,0,0,7555,19253,4247,96.666667,96.666667,'Number of leaves: 19\nSize of the tree: 21\n',21,19,19
haberman-weka.filters.unsupervised.attribute.Discretize-B10-M-1.0-Rfirst-last-precision6-weka.filters.unsupervised.attribute.NumericToNominal-Rfirst-last,3,9,weka.classifiers.trees.J48,'-C 0.25 -M 2',-217733168393644444,20260418.0439,276,30,22,8,0,73.333333,26.666667,0,0,0.390097,0.442222,99.797724,100.00115,25.099248,25.099747,-0.000499,0.836642,0.836658,-0.000017,0.046581,0.001553,0.185586,1,22,1,8,0,0,0,0,0.733333,1,0.846154,?,0.5,0.733333,0.733333,0.733333,0.266667,0.266667,?,0.733333,?,?,0.5,0.608889,?,0.733333,0,0,0,0,0,0,3866,19253,4247,100,100,'Number of leaves: 1\nSize of the tree: 1\n',1,1,1
haberman-weka.filters.unsupervised.attribute.Discretize-B10-M-1.0-Rfirst-last-precision6-weka.filters.unsupervised.attribute.NumericToNominal-Rfirst-last,3,10,weka.classifiers.trees.J48,'-C 0.25 -M 2',-217733168393644444,20260418.0439,276,30,22,8,0,73.333333,26.666667,0,0,0.390097,0.442222,99.797724,100.00115,25.099248,25.099747,-0.000499,0.836642,0.836658,-0.000017,0.046581,0.001553,0.185586,1,22,1,8,0,0,0,0,0.733333,1,0.846154,?,0.5,0.733333,0.733333,0.733333,0.266667,0.266667,?,0.733333,?,?,0.5,0.608889,?,0.733333,0.001,0,0,0,0,0,3866,19253,4247,100,100,'Number of leaves: 1\nSize of the tree: 1\n',1,1,1
haberman-weka.filters.unsupervised.attribute.Discretize-B10-M-1.0-Rfirst-last-precision6-weka.filters.unsupervised.attribute.NumericToNominal-Rfirst-last,4,1,weka.classifiers.trees.J48,'-C 0.25 -M 2',-217733168393644444,20260418.0439,275,31,23,8,0,74.193548,25.806452,0,0,0.38651,0.437632,99.788444,99.992718,25.547654,25.544461,0.003193,0.824118,0.824015,0.000103,0.049949,0.001611,0.195512,1,23,1,8,0,0,0,0,0.741935,1,0.851852,?,0.5,0.741935,0.741935,0.741935,0.258065,0.258065,?,0.741935,?,?,0.5,0.617066,?,0.741935,0,0,0,0,0,0,3866,19192,4308,100,100,'Number of leaves: 1\nSize of the tree: 1\n',1,1,1
haberman-weka.filters.unsupervised.attribute.Discretize-B10-M-1.0-Rfirst-last-precision6-weka.filters.unsupervised.attribute.NumericToNominal-Rfirst-last,4,2,weka.classifiers.trees.J48,'-C 0.25 -M 2',-217733168393644444,20260418.0439,275,31,23,8,0,74.193548,25.806452,0,0,0.38651,0.437632,99.788444,99.992718,25.547654,25.544461,0.003193,0.824118,0.824015,0.000103,0.049949,0.001611,0.195512,1,23,1,8,0,0,0,0,0.741935,1,0.851852,?,0.5,0.741935,0.741935,0.741935,0.258065,0.258065,?,0.741935,?,?,0.5,0.617066,?,0.741935,0,0,0,0,0,0,3866,19192,4308,100,100,'Number of leaves: 1\nSize of the tree: 1\n',1,1,1
haberman-weka.filters.unsupervised.attribute.Discretize-B10-M-1.0-Rfirst-last-precision6-weka.filters.unsupervised.attribute.NumericToNominal-Rfirst-last,4,3,weka.classifiers.trees.J48,'-C 0.25 -M 2',-217733168393644444,20260418.0439,275,31,23,8,0,74.193548,25.806452,0,0,0.38651,0.437632,99.788444,99.992718,25.547654,25.544461,0.003193,0.824118,0.824015,0.000103,0.049949,0.001611,0.195512,1,23,1,8,0,0,0,0,0.741935,1,0.851852,?,0.5,0.741935,0.741935,0.741935,0.258065,0.258065,?,0.741935,?,?,0.5,0.617066,?,0.741935,0,0,0,0,0,0,3866,19192,4308,100,100,'Number of leaves: 1\nSize of the tree: 1\n',1,1,1
haberman-weka.filters.unsupervised.attribute.Discretize-B10-M-1.0-Rfirst-last-precision6-weka.filters.unsupervised.attribute.NumericToNominal-Rfirst-last,4,4,weka.classifiers.trees.J48,'-C 0.25 -M 2',-217733168393644444,20260418.0439,275,31,23,8,0,74.193548,25.806452,0,0,0.38651,0.437632,99.788444,99.992718,25.547654,25.544461,0.003193,0.824118,0.824015,0.000103,0.049949,0.001611,0.195512,1,23,1,8,0,0,0,0,0.741935,1,0.851852,?,0.5,0.741935,0.741935,0.741935,0.258065,0.258065,?,0.741935,?,?,0.5,0.617066,?,0.741935,0.001,0,0,0,0,0,3866,19192,4308,100,100,'Number of leaves: 1\nSize of the tree: 1\n',1,1,1
haberman-weka.filters.unsupervised.attribute.Discretize-B10-M-1.0-Rfirst-last-precision6-weka.filters.unsupervised.attribute.NumericToNominal-Rfirst-last,4,5,weka.classifiers.trees.J48,'-C 0.25 -M 2',-217733168393644444,20260418.0439,275,31,23,8,0,74.193548,25.806452,0,0,0.38651,0.437632,99.788444,99.992718,25.547654,25.544461,0.003193,0.824118,0.824015,0.000103,0.049949,0.001611,0.195512,1,23,1,8,0,0,0,0,0.741935,1,0.851852,?,0.5,0.741935,0.741935,0.741935,0.258065,0.258065,?,0.741935,?,?,0.5,0.617066,?,0.741935,0,0,0,0,0,0,3866,19192,4308,100,100,'Number of leaves: 1\nSize of the tree: 1\n',1,1,1
haberman-weka.filters.unsupervised.attribute.Discretize-B10-M-1.0-Rfirst-last-precision6-weka.filters.unsupervised.attribute.NumericToNominal-Rfirst-last,4,6,weka.classifiers.trees.J48,'-C 0.25 -M 2',-217733168393644444,20260418.0439,275,31,21,10,0,67.741935,32.258065,0,0.025157,0.373199,0.444558,93.104634,97.769323,27.024229,25.837174,1.187055,0.871749,0.833457,0.038292,1.590517,0.051307,5.885524,0.909091,20,0.888889,8,0.111111,1,0.090909,2,0.714286,0.909091,0.8,0.031016,0.694444,0.81108,0.677419,0.657217,0.342783,0.322581,0.603687,0.677419,0.616129,0.031016,0.694444,0.70984,0.483333,0.677419,0,0,0,0,0,0,5831,19192,4308,100,100,'Number of leaves: 10\nSize of the tree: 11\n',11,10,10
haberman-weka.filters.unsupervised.attribute.Discretize-B10-M-1.0-Rfirst-last-precision6-weka.filters.unsupervised.attribute.NumericToNominal-Rfirst-last,4,7,weka.classifiers.trees.J48,'-C 0.25 -M 2',-217733168393644444,20260418.0439,276,30,21,9,0,70,30,0,-0.062992,0.355517,0.442724,90.951309,100.114727,25.099248,24.912449,0.186798,0.836642,0.830415,0.006227,1.683409,0.056114,6.70701,0.954545,21,1,8,0,0,0.045455,1,0.724138,0.954545,0.823529,-0.111979,0.590909,0.776039,0.7,0.745455,0.254545,0.3,0.531034,0.7,0.603922,-0.111979,0.590909,0.657601,0.411765,0.7,0,0.001,0,0,0,0,7555,19253,4247,100,98.333333,'Number of leaves: 19\nSize of the tree: 21\n',21,19,19
haberman-weka.filters.unsupervised.attribute.Discretize-B10-M-1.0-Rfirst-last-precision6-weka.filters.unsupervised.attribute.NumericToNominal-Rfirst-last,4,8,weka.classifiers.trees.J48,'-C 0.25 -M 2',-217733168393644444,20260418.0439,276,30,22,8,0,73.333333,26.666667,0,0,0.390097,0.442222,99.797724,100.00115,25.099248,25.099747,-0.000499,0.836642,0.836658,-0.000017,0.046581,0.001553,0.185586,1,22,1,8,0,0,0,0,0.733333,1,0.846154,?,0.5,0.733333,0.733333,0.733333,0.266667,0.266667,?,0.733333,?,?,0.5,0.608889,?,0.733333,0,0,0,0,0,0,3866,19253,4247,100,100,'Number of leaves: 1\nSize of the tree: 1\n',1,1,1
haberman-weka.filters.unsupervised.attribute.Discretize-B10-M-1.0-Rfirst-last-precision6-weka.filters.unsupervised.attribute.NumericToNominal-Rfirst-last,4,9,weka.classifiers.trees.J48,'-C 0.25 -M 2',-217733168393644444,20260418.0439,276,30,22,8,0,73.333333,26.666667,0,0,0.390097,0.442222,99.797724,100.00115,25.099248,25.099747,-0.000499,0.836642,0.836658,-0.000017,0.046581,0.001553,0.185586,1,22,1,8,0,0,0,0,0.733333,1,0.846154,?,0.5,0.733333,0.733333,0.733333,0.266667,0.266667,?,0.733333,?,?,0.5,0.608889,?,0.733333,0,0,0,0,0,0,3866,19253,4247,100,100,'Number of leaves: 1\nSize of the tree: 1\n',1,1,1
haberman-weka.filters.unsupervised.attribute.Discretize-B10-M-1.0-Rfirst-last-precision6-weka.filters.unsupervised.attribute.NumericToNominal-Rfirst-last,4,10,weka.classifiers.trees.J48,'-C 0.25 -M 2',-217733168393644444,20260418.0439,276,30,18,12,0,60,40,0,-0.216216,0.444097,0.518138,113.612546,117.168318,25.099248,32.207633,-7.108385,0.836642,1.073588,-0.236946,-6.160152,-0.205338,-24.543173,0.818182,18,1,8,0,0,0.181818,4,0.692308,0.818182,0.75,-0.236525,0.409091,0.703408,0.6,0.781818,0.218182,0.4,0.507692,0.6,0.55,-0.236525,0.409091,0.579536,0.375,0.6,0.001,0,0,0,0,0,5831,19253,4247,100,100,'Number of leaves: 10\nSize of the tree: 11\n',11,10,10
haberman-weka.filters.unsupervised.attribute.Discretize-B10-M-1.0-Rfirst-last-precision6-weka.filters.unsupervised.attribute.NumericToNominal-Rfirst-last,5,1,weka.classifiers.trees.J48,'-C 0.25 -M 2',-217733168393644444,20260418.0439,275,31,23,8,0,74.193548,25.806452,0,0,0.38651,0.437632,99.788444,99.992718,25.547654,25.544461,0.003193,0.824118,0.824015,0.000103,0.049949,0.001611,0.195512,1,23,1,8,0,0,0,0,0.741935,1,0.851852,?,0.5,0.741935,0.741935,0.741935,0.258065,0.258065,?,0.741935,?,?,0.5,0.617066,?,0.741935,0,0.001,0,0,0,0,3866,19192,4308,100,100,'Number of leaves: 1\nSize of the tree: 1\n',1,1,1
haberman-weka.filters.unsupervised.attribute.Discretize-B10-M-1.0-Rfirst-last-precision6-weka.filters.unsupervised.attribute.NumericToNominal-Rfirst-last,5,2,weka.classifiers.trees.J48,'-C 0.25 -M 2',-217733168393644444,20260418.0439,275,31,22,9,0,70.967742,29.032258,0,0.27154,0.378973,0.438715,97.842528,100.240247,25.547654,25.388436,0.159218,0.824118,0.818982,0.005136,-0.440742,-0.014217,-1.725177,0.782609,18,0.5,4,0.5,4,0.217391,5,0.818182,0.782609,0.8,0.272434,0.646739,0.812528,0.709677,0.427069,0.572931,0.290323,0.721733,0.709677,0.714991,0.272434,0.646739,0.691886,0.635294,0.709677,0,0,0,0,0,0,5831,19192,4308,100,100,'Number of leaves: 10\nSize of the tree: 11\n',11,10,10
haberman-weka.filters.unsupervised.attribute.Discretize-B10-M-1.0-Rfirst-last-precision6-weka.filters.unsupervised.attribute.NumericToNominal-Rfirst-last,5,3,weka.classifiers.trees.J48,'-C 0.25 -M 2',-217733168393644444,20260418.0439,275,31,23,8,0,74.193548,25.806452,0,0,0.38651,0.437632,99.788444,99.992718,25.547654,25.544461,0.003193,0.824118,0.824015,0.000103,0.049949,0.001611,0.195512,1,23,1,8,0,0,0,0,0.741935,1,0.851852,?,0.5,0.741935,0.741935,0.741935,0.258065,0.258065,?,0.741935,?,?,0.5,0.617066,?,0.741935,0.001,0,0,0,0,0,3866,19192,4308,100,100,'Number of leaves: 1\nSize of the tree: 1\n',1,1,1
haberman-weka.filters.unsupervised.attribute.Discretize-B10-M-1.0-Rfirst-last-precision6-weka.filters.unsupervised.attribute.NumericToNominal-Rfirst-last,5,4,weka.classifiers.trees.J48,'-C 0.25 -M 2',-217733168393644444,20260418.0439,275,31,21,10,0,67.741935,32.258065,0,-0.115108,0.399304,0.483923,103.09161,110.569596,25.547654,30.33522,-4.787565,0.824118,0.978555,-0.154438,-2.185147,-0.070489,-8.553219,0.913043,21,1,8,0,0,0.086957,2,0.724138,0.913043,0.807692,-0.154881,0.505435,0.745925,0.677419,0.764376,0.235624,0.322581,0.537264,0.677419,0.599256,-0.154881,0.505435,0.62181,0.403846,0.677419,0,0,0,0,0,0,7555,19192,4308,100,100,'Number of leaves: 19\nSize of the tree: 21\n',21,19,19
haberman-weka.filters.unsupervised.attribute.Discretize-B10-M-1.0-Rfirst-last-precision6-weka.filters.unsupervised.attribute.NumericToNominal-Rfirst-last,5,5,weka.classifiers.trees.J48,'-C 0.25 -M 2',-217733168393644444,20260418.0439,275,31,23,8,0,74.193548,25.806452,0,0,0.38651,0.437632,99.788444,99.992718,25.547654,25.544461,0.003193,0.824118,0.824015,0.000103,0.049949,0.001611,0.195512,1,23,1,8,0,0,0,0,0.741935,1,0.851852,?,0.5,0.741935,0.741935,0.741935,0.258065,0.258065,?,0.741935,?,?,0.5,0.617066,?,0.741935,0,0,0,0,0,0,3866,19192,4308,100,100,'Number of leaves: 1\nSize of the tree: 1\n',1,1,1
haberman-weka.filters.unsupervised.attribute.Discretize-B10-M-1.0-Rfirst-last-precision6-weka.filters.unsupervised.attribute.NumericToNominal-Rfirst-last,5,6,weka.classifiers.trees.J48,'-C 0.25 -M 2',-217733168393644444,20260418.0439,275,31,22,9,0,70.967742,29.032258,0,0,0.400117,0.454805,99.820083,100.022991,27.024229,27.035207,-0.010978,0.871749,0.872103,-0.000354,0.043744,0.001411,0.16187,1,22,1,9,0,0,0,0,0.709677,1,0.830189,?,0.5,0.709677,0.709677,0.709677,0.290323,0.290323,?,0.709677,?,?,0.5,0.587929,?,0.709677,0.001,0,0,0,0,0,3866,19192,4308,100,100,'Number of leaves: 1\nSize of the tree: 1\n',1,1,1
haberman-weka.filters.unsupervised.attribute.Discretize-B10-M-1.0-Rfirst-last-precision6-weka.filters.unsupervised.attribute.NumericToNominal-Rfirst-last,5,7,weka.classifiers.trees.J48,'-C 0.25 -M 2',-217733168393644444,20260418.0439,276,30,22,8,0,73.333333,26.666667,0,0,0.390097,0.442222,99.797724,100.00115,25.099248,25.099747,-0.000499,0.836642,0.836658,-0.000017,0.046581,0.001553,0.185586,1,22,1,8,0,0,0,0,0.733333,1,0.846154,?,0.5,0.733333,0.733333,0.733333,0.266667,0.266667,?,0.733333,?,?,0.5,0.608889,?,0.733333,0,0,0,0,0,0,3866,19253,4247,100,100,'Number of leaves: 1\nSize of the tree: 1\n',1,1,1
haberman-weka.filters.unsupervised.attribute.Discretize-B10-M-1.0-Rfirst-last-precision6-weka.filters.unsupervised.attribute.NumericToNominal-Rfirst-last,5,8,weka.classifiers.trees.J48,'-C 0.25 -M 2',-217733168393644444,20260418.0439,276,30,22,8,0,73.333333,26.666667,0,0,0.390097,0.442222,99.797724,100.00115,25.099248,25.099747,-0.000499,0.836642,0.836658,-0.000017,0.046581,0.001553,0.185586,1,22,1,8,0,0,0,0,0.733333,1,0.846154,?,0.5,0.733333,0.733333,0.733333,0.266667,0.266667,?,0.733333,?,?,0.5,0.608889,?,0.733333,0,0,0,0,0,0,3866,19253,4247,100,100,'Number of leaves: 1\nSize of the tree: 1\n',1,1,1
haberman-weka.filters.unsupervised.attribute.Discretize-B10-M-1.0-Rfirst-last-precision6-weka.filters.unsupervised.attribute.NumericToNominal-Rfirst-last,5,9,weka.classifiers.trees.J48,'-C 0.25 -M 2',-217733168393644444,20260418.0439,276,30,22,8,0,73.333333,26.666667,0,0,0.390097,0.442222,99.797724,100.00115,25.099248,25.099747,-0.000499,0.836642,0.836658,-0.000017,0.046581,0.001553,0.185586,1,22,1,8,0,0,0,0,0.733333,1,0.846154,?,0.5,0.733333,0.733333,0.733333,0.266667,0.266667,?,0.733333,?,?,0.5,0.608889,?,0.733333,0.001,0,0,0,0,0,3866,19253,4247,100,100,'Number of leaves: 1\nSize of the tree: 1\n',1,1,1
haberman-weka.filters.unsupervised.attribute.Discretize-B10-M-1.0-Rfirst-last-precision6-weka.filters.unsupervised.attribute.NumericToNominal-Rfirst-last,5,10,weka.classifiers.trees.J48,'-C 0.25 -M 2',-217733168393644444,20260418.0439,276,30,22,8,0,73.333333,26.666667,0,0.189189,0.361413,0.418286,92.459615,94.588486,25.099248,22.939636,2.159612,0.836642,0.764655,0.071987,1.690448,0.056348,6.735053,0.909091,20,0.75,6,0.25,2,0.090909,2,0.769231,0.909091,0.833333,0.206959,0.6875,0.819037,0.733333,0.574242,0.425758,0.266667,0.697436,0.733333,0.7,0.206959,0.6875,0.721738,0.583333,0.733333,0,0,0,0,0,0,5831,19253,4247,100,100,'Number of leaves: 10\nSize of the tree: 11\n',11,10,10
haberman-weka.filters.unsupervised.attribute.Discretize-B10-M-1.0-Rfirst-last-precision6-weka.filters.unsupervised.attribute.NumericToNominal-Rfirst-last,6,1,weka.classifiers.trees.J48,'-C 0.25 -M 2',-217733168393644444,20260418.0439,275,31,23,8,0,74.193548,25.806452,0,0,0.38651,0.437632,99.788444,99.992718,25.547654,25.544461,0.003193,0.824118,0.824015,0.000103,0.049949,0.001611,0.195512,1,23,1,8,0,0,0,0,0.741935,1,0.851852,?,0.5,0.741935,0.741935,0.741935,0.258065,0.258065,?,0.741935,?,?,0.5,0.617066,?,0.741935,0,0,0,0,0,0,3866,19192,4308,100,100,'Number of leaves: 1\nSize of the tree: 1\n',1,1,1
haberman-weka.filters.unsupervised.attribute.Discretize-B10-M-1.0-Rfirst-last-precision6-weka.filters.unsupervised.attribute.NumericToNominal-Rfirst-last,6,2,weka.classifiers.trees.J48,'-C 0.25 -M 2',-217733168393644444,20260418.0439,275,31,23,8,0,74.193548,25.806452,0,0,0.38651,0.437632,99.788444,99.992718,25.547654,25.544461,0.003193,0.824118,0.824015,0.000103,0.049949,0.001611,0.195512,1,23,1,8,0,0,0,0,0.741935,1,0.851852,?,0.5,0.741935,0.741935,0.741935,0.258065,0.258065,?,0.741935,?,?,0.5,0.617066,?,0.741935,0,0,0,0,0,0,3866,19192,4308,100,100,'Number of leaves: 1\nSize of the tree: 1\n',1,1,1
haberman-weka.filters.unsupervised.attribute.Discretize-B10-M-1.0-Rfirst-last-precision6-weka.filters.unsupervised.attribute.NumericToNominal-Rfirst-last,6,3,weka.classifiers.trees.J48,'-C 0.25 -M 2',-217733168393644444,20260418.0439,275,31,22,9,0,70.967742,29.032258,0,0.047782,0.361458,0.447054,93.320481,102.14559,25.547654,26.131869,-0.584215,0.824118,0.842964,-0.018846,0.543878,0.017544,2.128876,0.913043,21,0.875,7,0.125,1,0.086957,2,0.75,0.913043,0.823529,0.056305,0.543478,0.75971,0.709677,0.671634,0.328366,0.290323,0.642473,0.709677,0.657927,0.056305,0.543478,0.656615,0.502674,0.709677,0.001,0,0,0,0,0,7555,19192,4308,100,98.387097,'Number of leaves: 19\nSize of the tree: 21\n',21,19,19
haberman-weka.filters.unsupervised.attribute.Discretize-B10-M-1.0-Rfirst-last-precision6-weka.filters.unsupervised.attribute.NumericToNominal-Rfirst-last,6,4,weka.classifiers.trees.J48,'-C 0.25 -M 2',-217733168393644444,20260418.0439,275,31,21,10,0,67.741935,32.258065,0,0.157609,0.401768,0.481626,103.727733,110.044803,25.547654,29.57476,-4.027106,0.824118,0.954025,-0.129907,-2.76757,-0.089276,-10.832969,0.782609,18,0.625,5,0.375,3,0.217391,5,0.782609,0.782609,0.782609,0.157609,0.546196,0.760149,0.677419,0.519811,0.480189,0.322581,0.677419,0.677419,0.677419,0.157609,0.546196,0.639207,0.578804,0.677419,0,0,0,0,0,0,5831,19192,4308,100,100,'Number of leaves: 10\nSize of the tree: 11\n',11,10,10
haberman-weka.filters.unsupervised.attribute.Discretize-B10-M-1.0-Rfirst-last-precision6-weka.filters.unsupervised.attribute.NumericToNominal-Rfirst-last,6,5,weka.classifiers.trees.J48,'-C 0.25 -M 2',-217733168393644444,20260418.0439,275,31,23,8,0,74.193548,25.806452,0,0,0.38651,0.437632,99.788444,99.992718,25.547654,25.544461,0.003193,0.824118,0.824015,0.000103,0.049949,0.001611,0.195512,1,23,1,8,0,0,0,0,0.741935,1,0.851852,?,0.5,0.741935,0.741935,0.741935,0.258065,0.258065,?,0.741935,?,?,0.5,0.617066,?,0.741935,0,0,0,0,0,0,3866,19192,4308,100,100,'Number of leaves: 1\nSize of the tree: 1\n',1,1,1
haberman-weka.filters.unsupervised.attribute.Discretize-B10-M-1.0-Rfirst-last-precision6-weka.filters.unsupervised.attribute.NumericToNominal-Rfirst-last,6,6,weka.classifiers.trees.J48,'-C 0.25 -M 2',-217733168393644444,20260418.0439,275,31,23,8,0,74.193548,25.806452,0,0.220126,0.359328,0.42959,89.644069,94.477605,27.024229,24.804832,2.219397,0.871749,0.800156,0.071593,2.976546,0.096018,11.014361,0.954545,21,0.777778,7,0.222222,2,0.045455,1,0.75,0.954545,0.84,0.271391,0.646465,0.776741,0.741935,0.565168,0.434832,0.258065,0.725806,0.741935,0.692903,0.271391,0.646465,0.677939,0.586667,0.741935,0,0,0,0,0,0,7555,19192,4308,100,100,'Number of leaves: 19\nSize of the tree: 21\n',21,19,19
haberman-weka.filters.unsupervised.attribute.Discretize-B10-M-1.0-Rfirst-last-precision6-weka.filters.unsupervised.attribute.NumericToNominal-Rfirst-last,6,7,weka.classifiers.trees.J48,'-C 0.25 -M 2',-217733168393644444,20260418.0439,276,30,22,8,0,73.333333,26.666667,0,0,0.390097,0.442222,99.797724,100.00115,25.099248,25.099747,-0.000499,0.836642,0.836658,-0.000017,0.046581,0.001553,0.185586,1,22,1,8,0,0,0,0,0.733333,1,0.846154,?,0.5,0.733333,0.733333,0.733333,0.266667,0.266667,?,0.733333,?,?,0.5,0.608889,?,0.733333,0,0,0,0,0,0,3866,19253,4247,100,100,'Number of leaves: 1\nSize of the tree: 1\n',1,1,1
haberman-weka.filters.unsupervised.attribute.Discretize-B10-M-1.0-Rfirst-last-precision6-weka.filters.unsupervised.attribute.NumericToNominal-Rfirst-last,6,8,weka.classifiers.trees.J48,'-C 0.25 -M 2',-217733168393644444,20260418.0439,276,30,22,8,0,73.333333,26.666667,0,0,0.390097,0.442222,99.797724,100.00115,25.099248,25.099747,-0.000499,0.836642,0.836658,-0.000017,0.046581,0.001553,0.185586,1,22,1,8,0,0,0,0,0.733333,1,0.846154,?,0.5,0.733333,0.733333,0.733333,0.266667,0.266667,?,0.733333,?,?,0.5,0.608889,?,0.733333,0.001,0,0,0,0,0,3866,19253,4247,100,100,'Number of leaves: 1\nSize of the tree: 1\n',1,1,1
haberman-weka.filters.unsupervised.attribute.Discretize-B10-M-1.0-Rfirst-last-precision6-weka.filters.unsupervised.attribute.NumericToNominal-Rfirst-last,6,9,weka.classifiers.trees.J48,'-C 0.25 -M 2',-217733168393644444,20260418.0439,276,30,22,8,0,73.333333,26.666667,0,0,0.353537,0.453971,90.444663,102.657988,25.099248,26.211591,-1.112344,0.836642,0.87372,-0.037078,1.67565,0.055855,6.676096,1,22,1,8,0,0,0,0,0.733333,1,0.846154,?,0.5,0.737095,0.733333,0.733333,0.266667,0.266667,?,0.733333,?,?,0.5,0.6141,?,0.733333,0.001,0,0,0,0,0,7555,19253,4247,100,98.333333,'Number of leaves: 19\nSize of the tree: 21\n',21,19,19
haberman-weka.filters.unsupervised.attribute.Discretize-B10-M-1.0-Rfirst-last-precision6-weka.filters.unsupervised.attribute.NumericToNominal-Rfirst-last,6,10,weka.classifiers.trees.J48,'-C 0.25 -M 2',-217733168393644444,20260418.0439,276,30,22,8,0,73.333333,26.666667,0,0,0.390097,0.442222,99.797724,100.00115,25.099248,25.099747,-0.000499,0.836642,0.836658,-0.000017,0.046581,0.001553,0.185586,1,22,1,8,0,0,0,0,0.733333,1,0.846154,?,0.5,0.733333,0.733333,0.733333,0.266667,0.266667,?,0.733333,?,?,0.5,0.608889,?,0.733333,0,0,0,0,0,0,3866,19253,4247,100,100,'Number of leaves: 1\nSize of the tree: 1\n',1,1,1
haberman-weka.filters.unsupervised.attribute.Discretize-B10-M-1.0-Rfirst-last-precision6-weka.filters.unsupervised.attribute.NumericToNominal-Rfirst-last,7,1,weka.classifiers.trees.J48,'-C 0.25 -M 2',-217733168393644444,20260418.0439,275,31,23,8,0,74.193548,25.806452,0,0.107914,0.342641,0.43512,88.462293,99.418631,25.547654,24.961944,0.58571,0.824118,0.805224,0.018894,2.141685,0.069087,8.3831,0.956522,22,0.875,7,0.125,1,0.043478,1,0.758621,0.956522,0.846154,0.145201,0.581522,0.77823,0.741935,0.660414,0.339586,0.258065,0.69188,0.741935,0.679404,0.145201,0.581522,0.674171,0.523077,0.741935,0,0,0,0,0,0,7555,19192,4308,100,96.774194,'Number of leaves: 19\nSize of the tree: 21\n',21,19,19
haberman-weka.filters.unsupervised.attribute.Discretize-B10-M-1.0-Rfirst-last-precision6-weka.filters.unsupervised.attribute.NumericToNominal-Rfirst-last,7,2,weka.classifiers.trees.J48,'-C 0.25 -M 2',-217733168393644444,20260418.0439,275,31,23,8,0,74.193548,25.806452,0,0,0.38651,0.437632,99.788444,99.992718,25.547654,25.544461,0.003193,0.824118,0.824015,0.000103,0.049949,0.001611,0.195512,1,23,1,8,0,0,0,0,0.741935,1,0.851852,?,0.5,0.741935,0.741935,0.741935,0.258065,0.258065,?,0.741935,?,?,0.5,0.617066,?,0.741935,0,0,0,0,0,0,3866,19192,4308,100,100,'Number of leaves: 1\nSize of the tree: 1\n',1,1,1
haberman-weka.filters.unsupervised.attribute.Discretize-B10-M-1.0-Rfirst-last-precision6-weka.filters.unsupervised.attribute.NumericToNominal-Rfirst-last,7,3,weka.classifiers.trees.J48,'-C 0.25 -M 2',-217733168393644444,20260418.0439,275,31,23,8,0,74.193548,25.806452,0,0,0.38651,0.437632,99.788444,99.992718,25.547654,25.544461,0.003193,0.824118,0.824015,0.000103,0.049949,0.001611,0.195512,1,23,1,8,0,0,0,0,0.741935,1,0.851852,?,0.5,0.741935,0.741935,0.741935,0.258065,0.258065,?,0.741935,?,?,0.5,0.617066,?,0.741935,0,0,0,0,0,0,3866,19192,4308,100,100,'Number of leaves: 1\nSize of the tree: 1\n',1,1,1
haberman-weka.filters.unsupervised.attribute.Discretize-B10-M-1.0-Rfirst-last-precision6-weka.filters.unsupervised.attribute.NumericToNominal-Rfirst-last,7,4,weka.classifiers.trees.J48,'-C 0.25 -M 2',-217733168393644444,20260418.0439,275,31,23,8,0,74.193548,25.806452,0,0,0.38651,0.437632,99.788444,99.992718,25.547654,25.544461,0.003193,0.824118,0.824015,0.000103,0.049949,0.001611,0.195512,1,23,1,8,0,0,0,0,0.741935,1,0.851852,?,0.5,0.741935,0.741935,0.741935,0.258065,0.258065,?,0.741935,?,?,0.5,0.617066,?,0.741935,0,0,0,0,0,0,3866,19192,4308,100,100,'Number of leaves: 1\nSize of the tree: 1\n',1,1,1
haberman-weka.filters.unsupervised.attribute.Discretize-B10-M-1.0-Rfirst-last-precision6-weka.filters.unsupervised.attribute.NumericToNominal-Rfirst-last,7,5,weka.classifiers.trees.J48,'-C 0.25 -M 2',-217733168393644444,20260418.0439,275,31,23,8,0,74.193548,25.806452,0,0,0.38651,0.437632,99.788444,99.992718,25.547654,25.544461,0.003193,0.824118,0.824015,0.000103,0.049949,0.001611,0.195512,1,23,1,8,0,0,0,0,0.741935,1,0.851852,?,0.5,0.741935,0.741935,0.741935,0.258065,0.258065,?,0.741935,?,?,0.5,0.617066,?,0.741935,0,0,0,0,0,0,3866,19192,4308,100,100,'Number of leaves: 1\nSize of the tree: 1\n',1,1,1
haberman-weka.filters.unsupervised.attribute.Discretize-B10-M-1.0-Rfirst-last-precision6-weka.filters.unsupervised.attribute.NumericToNominal-Rfirst-last,7,6,weka.classifiers.trees.J48,'-C 0.25 -M 2',-217733168393644444,20260418.0439,275,31,22,9,0,70.967742,29.032258,0,0,0.400117,0.454805,99.820083,100.022991,27.024229,27.035207,-0.010978,0.871749,0.872103,-0.000354,0.043744,0.001411,0.16187,1,22,1,9,0,0,0,0,0.709677,1,0.830189,?,0.5,0.709677,0.709677,0.709677,0.290323,0.290323,?,0.709677,?,?,0.5,0.587929,?,0.709677,0,0,0,0,0,0,3866,19192,4308,100,100,'Number of leaves: 1\nSize of the tree: 1\n',1,1,1
haberman-weka.filters.unsupervised.attribute.Discretize-B10-M-1.0-Rfirst-last-precision6-weka.filters.unsupervised.attribute.NumericToNominal-Rfirst-last,7,7,weka.classifiers.trees.J48,'-C 0.25 -M 2',-217733168393644444,20260418.0439,276,30,22,8,0,73.333333,26.666667,0,0,0.390097,0.442222,99.797724,100.00115,25.099248,25.099747,-0.000499,0.836642,0.836658,-0.000017,0.046581,0.001553,0.185586,1,22,1,8,0,0,0,0,0.733333,1,0.846154,?,0.5,0.733333,0.733333,0.733333,0.266667,0.266667,?,0.733333,?,?,0.5,0.608889,?,0.733333,0,0,0,0,0,0,3866,19253,4247,100,100,'Number of leaves: 1\nSize of the tree: 1\n',1,1,1
haberman-weka.filters.unsupervised.attribute.Discretize-B10-M-1.0-Rfirst-last-precision6-weka.filters.unsupervised.attribute.NumericToNominal-Rfirst-last,7,8,weka.classifiers.trees.J48,'-C 0.25 -M 2',-217733168393644444,20260418.0439,276,30,22,8,0,73.333333,26.666667,0,0,0.390097,0.442222,99.797724,100.00115,25.099248,25.099747,-0.000499,0.836642,0.836658,-0.000017,0.046581,0.001553,0.185586,1,22,1,8,0,0,0,0,0.733333,1,0.846154,?,0.5,0.733333,0.733333,0.733333,0.266667,0.266667,?,0.733333,?,?,0.5,0.608889,?,0.733333,0,0,0,0,0,0,3866,19253,4247,100,100,'Number of leaves: 1\nSize of the tree: 1\n',1,1,1
haberman-weka.filters.unsupervised.attribute.Discretize-B10-M-1.0-Rfirst-last-precision6-weka.filters.unsupervised.attribute.NumericToNominal-Rfirst-last,7,9,weka.classifiers.trees.J48,'-C 0.25 -M 2',-217733168393644444,20260418.0439,276,30,17,13,0,56.666667,43.333333,0,-0.258065,0.43129,0.508635,110.336154,115.019372,25.099248,30.932312,-5.833064,0.836642,1.031077,-0.194435,-4.72326,-0.157442,-18.818335,0.772727,17,1,8,0,0,0.227273,5,0.68,0.772727,0.723404,-0.26968,0.508523,0.748995,0.566667,0.793939,0.206061,0.433333,0.498667,0.566667,0.530496,-0.26968,0.508523,0.627041,0.361702,0.566667,0,0,0,0,0,0,5831,19253,4247,100,100,'Number of leaves: 10\nSize of the tree: 11\n',11,10,10
haberman-weka.filters.unsupervised.attribute.Discretize-B10-M-1.0-Rfirst-last-precision6-weka.filters.unsupervised.attribute.NumericToNominal-Rfirst-last,7,10,weka.classifiers.trees.J48,'-C 0.25 -M 2',-217733168393644444,20260418.0439,276,30,22,8,0,73.333333,26.666667,0,0,0.390097,0.442222,99.797724,100.00115,25.099248,25.099747,-0.000499,0.836642,0.836658,-0.000017,0.046581,0.001553,0.185586,1,22,1,8,0,0,0,0,0.733333,1,0.846154,?,0.5,0.733333,0.733333,0.733333,0.266667,0.266667,?,0.733333,?,?,0.5,0.608889,?,0.733333,0,0,0,0,0,0,3866,19253,4247,100,100,'Number of leaves: 1\nSize of the tree: 1\n',1,1,1
haberman-weka.filters.unsupervised.attribute.Discretize-B10-M-1.0-Rfirst-last-precision6-weka.filters.unsupervised.attribute.NumericToNominal-Rfirst-last,8,1,weka.classifiers.trees.J48,'-C 0.25 -M 2',-217733168393644444,20260418.0439,275,31,23,8,0,74.193548,25.806452,0,0,0.38651,0.437632,99.788444,99.992718,25.547654,25.544461,0.003193,0.824118,0.824015,0.000103,0.049949,0.001611,0.195512,1,23,1,8,0,0,0,0,0.741935,1,0.851852,?,0.5,0.741935,0.741935,0.741935,0.258065,0.258065,?,0.741935,?,?,0.5,0.617066,?,0.741935,0,0,0,0,0,0,3866,19192,4308,100,100,'Number of leaves: 1\nSize of the tree: 1\n',1,1,1
haberman-weka.filters.unsupervised.attribute.Discretize-B10-M-1.0-Rfirst-last-precision6-weka.filters.unsupervised.attribute.NumericToNominal-Rfirst-last,8,2,weka.classifiers.trees.J48,'-C 0.25 -M 2',-217733168393644444,20260418.0439,275,31,23,8,0,74.193548,25.806452,0,0,0.38651,0.437632,99.788444,99.992718,25.547654,25.544461,0.003193,0.824118,0.824015,0.000103,0.049949,0.001611,0.195512,1,23,1,8,0,0,0,0,0.741935,1,0.851852,?,0.5,0.741935,0.741935,0.741935,0.258065,0.258065,?,0.741935,?,?,0.5,0.617066,?,0.741935,0,0,0,0,0,0,3866,19192,4308,100,100,'Number of leaves: 1\nSize of the tree: 1\n',1,1,1
haberman-weka.filters.unsupervised.attribute.Discretize-B10-M-1.0-Rfirst-last-precision6-weka.filters.unsupervised.attribute.NumericToNominal-Rfirst-last,8,3,weka.classifiers.trees.J48,'-C 0.25 -M 2',-217733168393644444,20260418.0439,275,31,23,8,0,74.193548,25.806452,0,0.107914,0.358229,0.460344,92.486727,105.182015,25.547654,1098.128657,-1072.581003,0.824118,35.423505,-34.599387,1.327754,0.042831,5.197167,0.956522,22,0.875,7,0.125,1,0.043478,1,0.758621,0.956522,0.846154,0.145201,0.502717,0.741973,0.741935,0.660414,0.339586,0.258065,0.69188,0.741935,0.679404,0.145201,0.502717,0.624898,0.523077,0.741935,0,0,0,0,0,0,7555,19192,4308,96.774194,96.774194,'Number of leaves: 19\nSize of the tree: 21\n',21,19,19
haberman-weka.filters.unsupervised.attribute.Discretize-B10-M-1.0-Rfirst-last-precision6-weka.filters.unsupervised.attribute.NumericToNominal-Rfirst-last,8,4,weka.classifiers.trees.J48,'-C 0.25 -M 2',-217733168393644444,20260418.0439,275,31,21,10,0,67.741935,32.258065,0,-0.006494,0.381261,0.456818,98.433299,104.376476,25.547654,26.948555,-1.400901,0.824118,0.869308,-0.04519,-1.157386,-0.037335,-4.530304,0.869565,20,0.875,7,0.125,1,0.130435,3,0.740741,0.869565,0.8,-0.007094,0.559783,0.774771,0.677419,0.682854,0.317146,0.322581,0.614098,0.677419,0.636559,-0.007094,0.559783,0.650099,0.483333,0.677419,0,0,0,0,0,0,5831,19192,4308,100,98.387097,'Number of leaves: 10\nSize of the tree: 11\n',11,10,10
haberman-weka.filters.unsupervised.attribute.Discretize-B10-M-1.0-Rfirst-last-precision6-weka.filters.unsupervised.attribute.NumericToNominal-Rfirst-last,8,5,weka.classifiers.trees.J48,'-C 0.25 -M 2',-217733168393644444,20260418.0439,275,31,23,8,0,74.193548,25.806452,0,0,0.38651,0.437632,99.788444,99.992718,25.547654,25.544461,0.003193,0.824118,0.824015,0.000103,0.049949,0.001611,0.195512,1,23,1,8,0,0,0,0,0.741935,1,0.851852,?,0.5,0.741935,0.741935,0.741935,0.258065,0.258065,?,0.741935,?,?,0.5,0.617066,?,0.741935,0.001,0,0,0,0,0,3866,19192,4308,100,100,'Number of leaves: 1\nSize of the tree: 1\n',1,1,1
haberman-weka.filters.unsupervised.attribute.Discretize-B10-M-1.0-Rfirst-last-precision6-weka.filters.unsupervised.attribute.NumericToNominal-Rfirst-last,8,6,weka.classifiers.trees.J48,'-C 0.25 -M 2',-217733168393644444,20260418.0439,275,31,22,9,0,70.967742,29.032258,0,0,0.400117,0.454805,99.820083,100.022991,27.024229,27.035207,-0.010978,0.871749,0.872103,-0.000354,0.043744,0.001411,0.16187,1,22,1,9,0,0,0,0,0.709677,1,0.830189,?,0.5,0.709677,0.709677,0.709677,0.290323,0.290323,?,0.709677,?,?,0.5,0.587929,?,0.709677,0,0,0,0,0,0,3866,19192,4308,100,100,'Number of leaves: 1\nSize of the tree: 1\n',1,1,1
haberman-weka.filters.unsupervised.attribute.Discretize-B10-M-1.0-Rfirst-last-precision6-weka.filters.unsupervised.attribute.NumericToNominal-Rfirst-last,8,7,weka.classifiers.trees.J48,'-C 0.25 -M 2',-217733168393644444,20260418.0439,276,30,20,10,0,66.666667,33.333333,0,-0.013514,0.391962,0.484309,100.274851,109.518391,25.099248,29.220406,-4.121158,0.836642,0.974014,-0.137372,-1.57009,-0.052336,-6.255525,0.863636,19,0.875,7,0.125,1,0.136364,3,0.730769,0.863636,0.791667,-0.014783,0.517045,0.740215,0.666667,0.67803,0.32197,0.333333,0.602564,0.666667,0.625,-0.014783,0.517045,0.639015,0.479167,0.666667,0.001,0,0,0,0,0,7555,19253,4247,100,98.333333,'Number of leaves: 19\nSize of the tree: 21\n',21,19,19
haberman-weka.filters.unsupervised.attribute.Discretize-B10-M-1.0-Rfirst-last-precision6-weka.filters.unsupervised.attribute.NumericToNominal-Rfirst-last,8,8,weka.classifiers.trees.J48,'-C 0.25 -M 2',-217733168393644444,20260418.0439,276,30,22,8,0,73.333333,26.666667,0,0,0.390097,0.442222,99.797724,100.00115,25.099248,25.099747,-0.000499,0.836642,0.836658,-0.000017,0.046581,0.001553,0.185586,1,22,1,8,0,0,0,0,0.733333,1,0.846154,?,0.5,0.733333,0.733333,0.733333,0.266667,0.266667,?,0.733333,?,?,0.5,0.608889,?,0.733333,0,0,0,0,0,0,3866,19253,4247,100,100,'Number of leaves: 1\nSize of the tree: 1\n',1,1,1
haberman-weka.filters.unsupervised.attribute.Discretize-B10-M-1.0-Rfirst-last-precision6-weka.filters.unsupervised.attribute.NumericToNominal-Rfirst-last,8,9,weka.classifiers.trees.J48,'-C 0.25 -M 2',-217733168393644444,20260418.0439,276,30,22,8,0,73.333333,26.666667,0,0,0.390097,0.442222,99.797724,100.00115,25.099248,25.099747,-0.000499,0.836642,0.836658,-0.000017,0.046581,0.001553,0.185586,1,22,1,8,0,0,0,0,0.733333,1,0.846154,?,0.5,0.733333,0.733333,0.733333,0.266667,0.266667,?,0.733333,?,?,0.5,0.608889,?,0.733333,0,0,0,0,0,0,3866,19253,4247,100,100,'Number of leaves: 1\nSize of the tree: 1\n',1,1,1
haberman-weka.filters.unsupervised.attribute.Discretize-B10-M-1.0-Rfirst-last-precision6-weka.filters.unsupervised.attribute.NumericToNominal-Rfirst-last,8,10,weka.classifiers.trees.J48,'-C 0.25 -M 2',-217733168393644444,20260418.0439,276,30,22,8,0,73.333333,26.666667,0,0,0.390097,0.442222,99.797724,100.00115,25.099248,25.099747,-0.000499,0.836642,0.836658,-0.000017,0.046581,0.001553,0.185586,1,22,1,8,0,0,0,0,0.733333,1,0.846154,?,0.5,0.733333,0.733333,0.733333,0.266667,0.266667,?,0.733333,?,?,0.5,0.608889,?,0.733333,0.001,0,0,0,0,0,3866,19253,4247,100,100,'Number of leaves: 1\nSize of the tree: 1\n',1,1,1
haberman-weka.filters.unsupervised.attribute.Discretize-B10-M-1.0-Rfirst-last-precision6-weka.filters.unsupervised.attribute.NumericToNominal-Rfirst-last,9,1,weka.classifiers.trees.J48,'-C 0.25 -M 2',-217733168393644444,20260418.0439,275,31,23,8,0,74.193548,25.806452,0,0,0.38651,0.437632,99.788444,99.992718,25.547654,25.544461,0.003193,0.824118,0.824015,0.000103,0.049949,0.001611,0.195512,1,23,1,8,0,0,0,0,0.741935,1,0.851852,?,0.5,0.741935,0.741935,0.741935,0.258065,0.258065,?,0.741935,?,?,0.5,0.617066,?,0.741935,0,0,0,0,0,0,3866,19192,4308,100,100,'Number of leaves: 1\nSize of the tree: 1\n',1,1,1
haberman-weka.filters.unsupervised.attribute.Discretize-B10-M-1.0-Rfirst-last-precision6-weka.filters.unsupervised.attribute.NumericToNominal-Rfirst-last,9,2,weka.classifiers.trees.J48,'-C 0.25 -M 2',-217733168393644444,20260418.0439,275,31,23,8,0,74.193548,25.806452,0,0,0.380144,0.465298,98.144739,106.314003,25.547654,1098.687143,-1073.139489,0.824118,35.441521,-34.617403,-0.720924,-0.023256,-2.821881,1,23,1,8,0,0,0,0,0.741935,1,0.851852,?,0.423913,0.732711,0.741935,0.741935,0.258065,0.258065,?,0.741935,?,?,0.423913,0.603562,?,0.741935,0,0,0,0,0,0,9279,19192,4308,96.774194,98.387097,'Number of leaves: 28\nSize of the tree: 31\n',31,28,28
haberman-weka.filters.unsupervised.attribute.Discretize-B10-M-1.0-Rfirst-last-precision6-weka.filters.unsupervised.attribute.NumericToNominal-Rfirst-last,9,3,weka.classifiers.trees.J48,'-C 0.25 -M 2',-217733168393644444,20260418.0439,275,31,23,8,0,74.193548,25.806452,0,0.194805,0.353011,0.426984,91.139795,97.559773,25.547654,24.404393,1.143261,0.824118,0.787238,0.036879,1.612102,0.052003,6.310178,0.913043,21,0.75,6,0.25,2,0.086957,2,0.777778,0.913043,0.84,0.212814,0.611413,0.790401,0.741935,0.578892,0.421108,0.258065,0.706093,0.741935,0.709247,0.212814,0.611413,0.686273,0.586667,0.741935,0.001,0,0,0,0,0,5831,19192,4308,100,98.387097,'Number of leaves: 10\nSize of the tree: 11\n',11,10,10
haberman-weka.filters.unsupervised.attribute.Discretize-B10-M-1.0-Rfirst-last-precision6-weka.filters.unsupervised.attribute.NumericToNominal-Rfirst-last,9,4,weka.classifiers.trees.J48,'-C 0.25 -M 2',-217733168393644444,20260418.0439,275,31,23,8,0,74.193548,25.806452,0,0,0.38651,0.437632,99.788444,99.992718,25.547654,25.544461,0.003193,0.824118,0.824015,0.000103,0.049949,0.001611,0.195512,1,23,1,8,0,0,0,0,0.741935,1,0.851852,?,0.5,0.741935,0.741935,0.741935,0.258065,0.258065,?,0.741935,?,?,0.5,0.617066,?,0.741935,0,0,0,0,0,0,3866,19192,4308,100,100,'Number of leaves: 1\nSize of the tree: 1\n',1,1,1
haberman-weka.filters.unsupervised.attribute.Discretize-B10-M-1.0-Rfirst-last-precision6-weka.filters.unsupervised.attribute.NumericToNominal-Rfirst-last,9,5,weka.classifiers.trees.J48,'-C 0.25 -M 2',-217733168393644444,20260418.0439,275,31,23,8,0,74.193548,25.806452,0,0,0.38651,0.437632,99.788444,99.992718,25.547654,25.544461,0.003193,0.824118,0.824015,0.000103,0.049949,0.001611,0.195512,1,23,1,8,0,0,0,0,0.741935,1,0.851852,?,0.5,0.741935,0.741935,0.741935,0.258065,0.258065,?,0.741935,?,?,0.5,0.617066,?,0.741935,0,0,0,0,0,0,3866,19192,4308,100,100,'Number of leaves: 1\nSize of the tree: 1\n',1,1,1
haberman-weka.filters.unsupervised.attribute.Discretize-B10-M-1.0-Rfirst-last-precision6-weka.filters.unsupervised.attribute.NumericToNominal-Rfirst-last,9,6,weka.classifiers.trees.J48,'-C 0.25 -M 2',-217733168393644444,20260418.0439,275,31,22,9,0,70.967742,29.032258,0,0,0.400117,0.454805,99.820083,100.022991,27.024229,27.035207,-0.010978,0.871749,0.872103,-0.000354,0.043744,0.001411,0.16187,1,22,1,9,0,0,0,0,0.709677,1,0.830189,?,0.5,0.709677,0.709677,0.709677,0.290323,0.290323,?,0.709677,?,?,0.5,0.587929,?,0.709677,0,0,0,0,0,0,3866,19192,4308,100,100,'Number of leaves: 1\nSize of the tree: 1\n',1,1,1
haberman-weka.filters.unsupervised.attribute.Discretize-B10-M-1.0-Rfirst-last-precision6-weka.filters.unsupervised.attribute.NumericToNominal-Rfirst-last,9,7,weka.classifiers.trees.J48,'-C 0.25 -M 2',-217733168393644444,20260418.0439,276,30,22,8,0,73.333333,26.666667,0,0,0.390097,0.442222,99.797724,100.00115,25.099248,25.099747,-0.000499,0.836642,0.836658,-0.000017,0.046581,0.001553,0.185586,1,22,1,8,0,0,0,0,0.733333,1,0.846154,?,0.5,0.733333,0.733333,0.733333,0.266667,0.266667,?,0.733333,?,?,0.5,0.608889,?,0.733333,0,0,0.015625,0,15.625,0,3866,19253,4247,100,100,'Number of leaves: 1\nSize of the tree: 1\n',1,1,1
haberman-weka.filters.unsupervised.attribute.Discretize-B10-M-1.0-Rfirst-last-precision6-weka.filters.unsupervised.attribute.NumericToNominal-Rfirst-last,9,8,weka.classifiers.trees.J48,'-C 0.25 -M 2',-217733168393644444,20260418.0439,276,30,22,8,0,73.333333,26.666667,0,0,0.390097,0.442222,99.797724,100.00115,25.099248,25.099747,-0.000499,0.836642,0.836658,-0.000017,0.046581,0.001553,0.185586,1,22,1,8,0,0,0,0,0.733333,1,0.846154,?,0.5,0.733333,0.733333,0.733333,0.266667,0.266667,?,0.733333,?,?,0.5,0.608889,?,0.733333,0,0,0,0,0,0,3866,19253,4247,100,100,'Number of leaves: 1\nSize of the tree: 1\n',1,1,1
haberman-weka.filters.unsupervised.attribute.Discretize-B10-M-1.0-Rfirst-last-precision6-weka.filters.unsupervised.attribute.NumericToNominal-Rfirst-last,9,9,weka.classifiers.trees.J48,'-C 0.25 -M 2',-217733168393644444,20260418.0439,276,30,20,10,0,66.666667,33.333333,0,-0.119403,0.380385,0.459541,97.313148,103.917525,25.099248,26.454541,-1.355293,0.836642,0.881818,-0.045176,-0.18187,-0.006062,-0.724601,0.909091,20,1,8,0,0,0.090909,2,0.714286,0.909091,0.8,-0.161165,0.602273,0.783631,0.666667,0.757576,0.242424,0.333333,0.52381,0.666667,0.586667,-0.161165,0.602273,0.660218,0.4,0.666667,0,0,0,0,0,0,5831,19253,4247,100,100,'Number of leaves: 10\nSize of the tree: 11\n',11,10,10
haberman-weka.filters.unsupervised.attribute.Discretize-B10-M-1.0-Rfirst-last-precision6-weka.filters.unsupervised.attribute.NumericToNominal-Rfirst-last,9,10,weka.classifiers.trees.J48,'-C 0.25 -M 2',-217733168393644444,20260418.0439,276,30,22,8,0,73.333333,26.666667,0,0,0.390097,0.442222,99.797724,100.00115,25.099248,25.099747,-0.000499,0.836642,0.836658,-0.000017,0.046581,0.001553,0.185586,1,22,1,8,0,0,0,0,0.733333,1,0.846154,?,0.5,0.733333,0.733333,0.733333,0.266667,0.266667,?,0.733333,?,?,0.5,0.608889,?,0.733333,0,0,0,0,0,0,3866,19253,4247,100,100,'Number of leaves: 1\nSize of the tree: 1\n',1,1,1
haberman-weka.filters.unsupervised.attribute.Discretize-B10-M-1.0-Rfirst-last-precision6-weka.filters.unsupervised.attribute.NumericToNominal-Rfirst-last,10,1,weka.classifiers.trees.J48,'-C 0.25 -M 2',-217733168393644444,20260418.0439,275,31,24,7,0,77.419355,22.580645,0,0.259386,0.322472,0.404408,83.255223,92.401586,25.547654,22.325533,3.222121,0.824118,0.720178,0.103939,3.959007,0.12771,15.49656,0.956522,22,0.75,6,0.25,2,0.043478,1,0.785714,0.956522,0.862745,0.305657,0.63587,0.800632,0.774194,0.567672,0.432328,0.225806,0.754992,0.774194,0.733943,0.305657,0.63587,0.717673,0.613191,0.774194,0,0,0,0,0,0,7555,19192,4308,100,96.774194,'Number of leaves: 19\nSize of the tree: 21\n',21,19,19
haberman-weka.filters.unsupervised.attribute.Discretize-B10-M-1.0-Rfirst-last-precision6-weka.filters.unsupervised.attribute.NumericToNominal-Rfirst-last,10,2,weka.classifiers.trees.J48,'-C 0.25 -M 2',-217733168393644444,20260418.0439,275,31,23,8,0,74.193548,25.806452,0,0,0.38651,0.437632,99.788444,99.992718,25.547654,25.544461,0.003193,0.824118,0.824015,0.000103,0.049949,0.001611,0.195512,1,23,1,8,0,0,0,0,0.741935,1,0.851852,?,0.5,0.741935,0.741935,0.741935,0.258065,0.258065,?,0.741935,?,?,0.5,0.617066,?,0.741935,0,0,0,0,0,0,3866,19192,4308,100,100,'Number of leaves: 1\nSize of the tree: 1\n',1,1,1
haberman-weka.filters.unsupervised.attribute.Discretize-B10-M-1.0-Rfirst-last-precision6-weka.filters.unsupervised.attribute.NumericToNominal-Rfirst-last,10,3,weka.classifiers.trees.J48,'-C 0.25 -M 2',-217733168393644444,20260418.0439,275,31,22,9,0,70.967742,29.032258,0,0.047782,0.367803,0.448981,94.958601,102.585783,25.547654,26.537016,-0.989362,0.824118,0.856033,-0.031915,0.571098,0.018423,2.235423,0.913043,21,0.875,7,0.125,1,0.086957,2,0.75,0.913043,0.823529,0.056305,0.557065,0.766855,0.709677,0.671634,0.328366,0.290323,0.642473,0.709677,0.657927,0.056305,0.557065,0.645787,0.502674,0.709677,0,0,0,0,0,0,5831,19192,4308,100,100,'Number of leaves: 10\nSize of the tree: 11\n',11,10,10
haberman-weka.filters.unsupervised.attribute.Discretize-B10-M-1.0-Rfirst-last-precision6-weka.filters.unsupervised.attribute.NumericToNominal-Rfirst-last,10,4,weka.classifiers.trees.J48,'-C 0.25 -M 2',-217733168393644444,20260418.0439,275,31,22,9,0,70.967742,29.032258,0,0.136223,0.371326,0.448637,95.868306,102.507083,25.547654,26.396512,-0.848858,0.824118,0.8515,-0.027383,0.325229,0.010491,1.27303,0.869565,20,0.75,6,0.25,2,0.130435,3,0.769231,0.869565,0.816327,0.142247,0.589674,0.784205,0.709677,0.590112,0.409888,0.290323,0.673945,0.709677,0.685066,0.142247,0.589674,0.658245,0.562009,0.709677,0,0,0,0,0,0,5831,19192,4308,100,100,'Number of leaves: 10\nSize of the tree: 11\n',11,10,10
haberman-weka.filters.unsupervised.attribute.Discretize-B10-M-1.0-Rfirst-last-precision6-weka.filters.unsupervised.attribute.NumericToNominal-Rfirst-last,10,5,weka.classifiers.trees.J48,'-C 0.25 -M 2',-217733168393644444,20260418.0439,275,31,23,8,0,74.193548,25.806452,0,0,0.38651,0.437632,99.788444,99.992718,25.547654,25.544461,0.003193,0.824118,0.824015,0.000103,0.049949,0.001611,0.195512,1,23,1,8,0,0,0,0,0.741935,1,0.851852,?,0.5,0.741935,0.741935,0.741935,0.258065,0.258065,?,0.741935,?,?,0.5,0.617066,?,0.741935,0,0,0,0,0,0,3866,19192,4308,100,100,'Number of leaves: 1\nSize of the tree: 1\n',1,1,1
haberman-weka.filters.unsupervised.attribute.Discretize-B10-M-1.0-Rfirst-last-precision6-weka.filters.unsupervised.attribute.NumericToNominal-Rfirst-last,10,6,weka.classifiers.trees.J48,'-C 0.25 -M 2',-217733168393644444,20260418.0439,275,31,22,9,0,70.967742,29.032258,0,0.1571,0.359239,0.426583,89.621781,93.816139,27.024229,24.067756,2.956472,0.871749,0.776379,0.09537,2.829819,0.091284,10.471414,0.909091,20,0.777778,7,0.222222,2,0.090909,2,0.740741,0.909091,0.816327,0.177799,0.729798,0.840524,0.709677,0.578364,0.421636,0.290323,0.670848,0.709677,0.668659,0.177799,0.729798,0.726608,0.562009,0.709677,0,0,0,0,0,0,5831,19192,4308,100,98.387097,'Number of leaves: 10\nSize of the tree: 11\n',11,10,10
haberman-weka.filters.unsupervised.attribute.Discretize-B10-M-1.0-Rfirst-last-precision6-weka.filters.unsupervised.attribute.NumericToNominal-Rfirst-last,10,7,weka.classifiers.trees.J48,'-C 0.25 -M 2',-217733168393644444,20260418.0439,276,30,22,8,0,73.333333,26.666667,0,0,0.390097,0.442222,99.797724,100.00115,25.099248,25.099747,-0.000499,0.836642,0.836658,-0.000017,0.046581,0.001553,0.185586,1,22,1,8,0,0,0,0,0.733333,1,0.846154,?,0.5,0.733333,0.733333,0.733333,0.266667,0.266667,?,0.733333,?,?,0.5,0.608889,?,0.733333,0.001,0,0,0,0,0,3866,19253,4247,100,100,'Number of leaves: 1\nSize of the tree: 1\n',1,1,1
haberman-weka.filters.unsupervised.attribute.Discretize-B10-M-1.0-Rfirst-last-precision6-weka.filters.unsupervised.attribute.NumericToNominal-Rfirst-last,10,8,weka.classifiers.trees.J48,'-C 0.25 -M 2',-217733168393644444,20260418.0439,276,30,22,8,0,73.333333,26.666667,0,0,0.390097,0.442222,99.797724,100.00115,25.099248,25.099747,-0.000499,0.836642,0.836658,-0.000017,0.046581,0.001553,0.185586,1,22,1,8,0,0,0,0,0.733333,1,0.846154,?,0.5,0.733333,0.733333,0.733333,0.266667,0.266667,?,0.733333,?,?,0.5,0.608889,?,0.733333,0,0,0,0,0,0,3866,19253,4247,100,100,'Number of leaves: 1\nSize of the tree: 1\n',1,1,1
haberman-weka.filters.unsupervised.attribute.Discretize-B10-M-1.0-Rfirst-last-precision6-weka.filters.unsupervised.attribute.NumericToNominal-Rfirst-last,10,9,weka.classifiers.trees.J48,'-C 0.25 -M 2',-217733168393644444,20260418.0439,276,30,22,8,0,73.333333,26.666667,0,0,0.390097,0.442222,99.797724,100.00115,25.099248,25.099747,-0.000499,0.836642,0.836658,-0.000017,0.046581,0.001553,0.185586,1,22,1,8,0,0,0,0,0.733333,1,0.846154,?,0.5,0.733333,0.733333,0.733333,0.266667,0.266667,?,0.733333,?,?,0.5,0.608889,?,0.733333,0,0,0,0,0,0,3866,19253,4247,100,100,'Number of leaves: 1\nSize of the tree: 1\n',1,1,1
haberman-weka.filters.unsupervised.attribute.Discretize-B10-M-1.0-Rfirst-last-precision6-weka.filters.unsupervised.attribute.NumericToNominal-Rfirst-last,10,10,weka.classifiers.trees.J48,'-C 0.25 -M 2',-217733168393644444,20260418.0439,276,30,21,9,0,70,30,0,0.042553,0.373888,0.462589,95.651043,104.606785,25.099248,27.120321,-2.021073,0.836642,0.904011,-0.067369,0.330218,0.011007,1.315651,0.909091,20,0.875,7,0.125,1,0.090909,2,0.740741,0.909091,0.816327,0.050252,0.596591,0.777497,0.7,0.665909,0.334091,0.3,0.632099,0.7,0.647124,0.050252,0.596591,0.675561,0.499072,0.7,0,0,0,0,0,0,7555,19253,4247,100,98.333333,'Number of leaves: 19\nSize of the tree: 21\n',21,19,19
haberman-weka.filters.unsupervised.attribute.Discretize-B10-M-1.0-Rfirst-last-precision6-weka.filters.unsupervised.attribute.NumericToNominal-Rfirst-last,1,1,weka.classifiers.bayes.NaiveBayes,'',5995231201785697655,20260418.0439,275,31,20,11,0,64.516129,35.483871,0,-0.118033,0.36715,0.474054,91.595516,104.256163,27.024229,29.35681,-2.332581,0.871749,0.946994,-0.075245,0.65563,0.021149,2.426081,0.909091,20,1,9,0,0,0.090909,2,0.689655,0.909091,0.784314,-0.167968,0.598485,0.778418,0.645161,0.73607,0.26393,0.354839,0.489433,0.645161,0.55661,-0.167968,0.598485,0.655739,0.392157,0.645161,0,0,0,0,0,0,3871,19192,4308,100,100,?,?,?,?
haberman-weka.filters.unsupervised.attribute.Discretize-B10-M-1.0-Rfirst-last-precision6-weka.filters.unsupervised.attribute.NumericToNominal-Rfirst-last,1,2,weka.classifiers.bayes.NaiveBayes,'',5995231201785697655,20260418.0439,275,31,25,6,0,80.645161,19.354839,0,0.330935,0.344563,0.419737,88.95852,95.903974,25.547654,24.564275,0.983379,0.824118,0.792396,0.031722,2.47529,0.079848,9.688915,1,23,0.75,6,0.25,2,0,0,0.793103,1,0.884615,0.445282,0.597826,0.809403,0.806452,0.556452,0.443548,0.193548,0.846496,0.806452,0.759553,0.445282,0.597826,0.743966,0.642308,0.806452,0,0,0,0,0,0,3871,19192,4308,100,100,?,?,?,?
haberman-weka.filters.unsupervised.attribute.Discretize-B10-M-1.0-Rfirst-last-precision6-weka.filters.unsupervised.attribute.NumericToNominal-Rfirst-last,1,3,weka.classifiers.bayes.NaiveBayes,'',5995231201785697655,20260418.0439,275,31,27,4,0,87.096774,12.903226,0,0.597403,0.306003,0.368781,79.003292,84.261324,25.547654,19.670798,5.876856,0.824118,0.634542,0.189576,5.761051,0.18584,22.550215,1,23,0.5,4,0.5,4,0,0,0.851852,1,0.92,0.65263,0.774457,0.8924,0.870968,0.370968,0.629032,0.129032,0.890084,0.870968,0.854624,0.65263,0.774457,0.842305,0.793333,0.870968,0,0,0,0,0,0,3871,19192,4308,100,98.387097,?,?,?,?
haberman-weka.filters.unsupervised.attribute.Discretize-B10-M-1.0-Rfirst-last-precision6-weka.filters.unsupervised.attribute.NumericToNominal-Rfirst-last,1,4,weka.classifiers.bayes.NaiveBayes,'',5995231201785697655,20260418.0439,275,31,22,9,0,70.967742,29.032258,0,-0.060837,0.326089,0.448697,84.189004,102.520856,25.547654,26.166177,-0.618523,0.824118,0.84407,-0.019952,2.988674,0.096409,11.698429,0.956522,22,1,8,0,0,0.043478,1,0.733333,0.956522,0.830189,-0.107676,0.744565,0.904777,0.709677,0.753156,0.246844,0.290323,0.544086,0.709677,0.615946,-0.107676,0.744565,0.786186,0.415094,0.709677,0,0,0,0,0,0,3871,19192,4308,100,95.16129,?,?,?,?
haberman-weka.filters.unsupervised.attribute.Discretize-B10-M-1.0-Rfirst-last-precision6-weka.filters.unsupervised.attribute.NumericToNominal-Rfirst-last,1,5,weka.classifiers.bayes.NaiveBayes,'',5995231201785697655,20260418.0439,275,31,27,4,0,87.096774,12.903226,0,0.633136,0.319891,0.3554,82.588896,81.203901,25.547654,18.728977,6.818677,0.824118,0.604161,0.219957,5.246116,0.16923,20.53463,0.956522,22,0.375,3,0.625,5,0.043478,1,0.88,0.956522,0.916667,0.644064,0.907609,0.968487,0.870968,0.289446,0.710554,0.129032,0.867957,0.870968,0.864439,0.644064,0.907609,0.908438,0.815476,0.870968,0,0,0,0,0,0,3871,19192,4308,100,100,?,?,?,?
haberman-weka.filters.unsupervised.attribute.Discretize-B10-M-1.0-Rfirst-last-precision6-weka.filters.unsupervised.attribute.NumericToNominal-Rfirst-last,1,6,weka.classifiers.bayes.NaiveBayes,'',5995231201785697655,20260418.0439,275,31,26,5,0,83.870968,16.129032,0,0.47099,0.318433,0.394478,82.212264,90.132628,25.547654,22.248232,3.299422,0.824118,0.717685,0.106433,4.961694,0.160055,19.421328,1,23,0.625,5,0.375,3,0,0,0.821429,1,0.901961,0.55501,0.665761,0.811157,0.83871,0.46371,0.53629,0.16129,0.867512,0.83871,0.809959,0.55501,0.665761,0.772452,0.723708,0.83871,0,0,0,0,0,0,3871,19192,4308,100,100,?,?,?,?
haberman-weka.filters.unsupervised.attribute.Discretize-B10-M-1.0-Rfirst-last-precision6-weka.filters.unsupervised.attribute.NumericToNominal-Rfirst-last,1,7,weka.classifiers.bayes.NaiveBayes,'',5995231201785697655,20260418.0439,276,30,23,7,0,76.666667,23.333333,0,0.173228,0.351153,0.436204,89.834826,98.64031,25.099248,24.443188,0.65606,0.836642,0.814773,0.021869,1.62864,0.054288,6.488799,1,22,0.875,7,0.125,1,0,0,0.758621,1,0.862745,0.307941,0.619318,0.846258,0.766667,0.641667,0.358333,0.233333,0.822989,0.766667,0.691939,0.307941,0.619318,0.736846,0.542484,0.766667,0,0,0,0,0,0,3871,19253,4247,100,100,?,?,?,?
haberman-weka.filters.unsupervised.attribute.Discretize-B10-M-1.0-Rfirst-last-precision6-weka.filters.unsupervised.attribute.NumericToNominal-Rfirst-last,1,8,weka.classifiers.bayes.NaiveBayes,'',5995231201785697655,20260418.0439,276,30,22,8,0,73.333333,26.666667,0,0.259259,0.342497,0.410961,87.620496,92.932083,25.099248,21.716973,3.382275,0.836642,0.723899,0.112742,2.536432,0.084548,10.10561,0.863636,19,0.625,5,0.375,3,0.136364,3,0.791667,0.863636,0.826087,0.263822,0.778409,0.919916,0.733333,0.494697,0.505303,0.266667,0.713889,0.733333,0.720083,0.263822,0.778409,0.805115,0.627329,0.733333,0,0,0,0,0,0,3871,19253,4247,100,96.666667,?,?,?,?
haberman-weka.filters.unsupervised.attribute.Discretize-B10-M-1.0-Rfirst-last-precision6-weka.filters.unsupervised.attribute.NumericToNominal-Rfirst-last,1,9,weka.classifiers.bayes.NaiveBayes,'',5995231201785697655,20260418.0439,276,30,20,10,0,66.666667,33.333333,0,0.074074,0.36295,0.473868,92.852938,107.157474,25.099248,29.818478,-4.71923,0.836642,0.993949,-0.157308,0.267167,0.008906,1.064441,0.818182,18,0.75,6,0.25,2,0.181818,4,0.75,0.818182,0.782609,0.075378,0.579545,0.809276,0.666667,0.598485,0.401515,0.333333,0.638889,0.666667,0.650104,0.075378,0.579545,0.69076,0.534161,0.666667,0,0,0,0,0,0,3871,19253,4247,96.666667,91.666667,?,?,?,?
haberman-weka.filters.unsupervised.attribute.Discretize-B10-M-1.0-Rfirst-last-precision6-weka.filters.unsupervised.attribute.NumericToNominal-Rfirst-last,1,10,weka.classifiers.bayes.NaiveBayes,'',5995231201785697655,20260418.0439,276,30,23,7,0,76.666667,23.333333,0,0.173228,0.349245,0.414731,89.346725,93.784419,25.099248,22.396717,2.702531,0.836642,0.746557,0.090084,2.179907,0.072664,8.68515,1,22,0.875,7,0.125,1,0,0,0.758621,1,0.862745,0.307941,0.75,0.899847,0.766667,0.641667,0.358333,0.233333,0.822989,0.766667,0.691939,0.307941,0.75,0.803871,0.542484,0.766667,0,0,0,0,0,0,3871,19253,4247,100,100,?,?,?,?
haberman-weka.filters.unsupervised.attribute.Discretize-B10-M-1.0-Rfirst-last-precision6-weka.filters.unsupervised.attribute.NumericToNominal-Rfirst-last,2,1,weka.classifiers.bayes.NaiveBayes,'',5995231201785697655,20260418.0439,275,31,21,10,0,67.741935,32.258065,0,-0.006494,0.346118,0.421746,89.360043,96.362975,25.547654,23.528719,2.018935,0.824118,0.758991,0.065127,1.645359,0.053076,6.440354,0.869565,20,0.875,7,0.125,1,0.130435,3,0.740741,0.869565,0.8,-0.007094,0.725543,0.88621,0.677419,0.682854,0.317146,0.322581,0.614098,0.677419,0.636559,-0.007094,0.725543,0.769745,0.483333,0.677419,0,0,0,0,0,0,3871,19192,4308,100,100,?,?,?,?
haberman-weka.filters.unsupervised.attribute.Discretize-B10-M-1.0-Rfirst-last-precision6-weka.filters.unsupervised.attribute.NumericToNominal-Rfirst-last,2,2,weka.classifiers.bayes.NaiveBayes,'',5995231201785697655,20260418.0439,275,31,23,8,0,74.193548,25.806452,0,0.107914,0.36186,0.433185,93.42436,98.976545,25.547654,24.910685,0.63697,0.824118,0.80357,0.020547,0.654644,0.021118,2.562444,0.956522,22,0.875,7,0.125,1,0.043478,1,0.758621,0.956522,0.846154,0.145201,0.570652,0.826835,0.741935,0.660414,0.339586,0.258065,0.69188,0.741935,0.679404,0.145201,0.570652,0.717211,0.523077,0.741935,0,0,0,0,0,0,3871,19192,4308,100,98.387097,?,?,?,?
haberman-weka.filters.unsupervised.attribute.Discretize-B10-M-1.0-Rfirst-last-precision6-weka.filters.unsupervised.attribute.NumericToNominal-Rfirst-last,2,3,weka.classifiers.bayes.NaiveBayes,'',5995231201785697655,20260418.0439,275,31,22,9,0,70.967742,29.032258,0,0.136223,0.341202,0.417498,88.090763,95.392282,25.547654,23.62217,1.925484,0.824118,0.762005,0.062112,2.662626,0.085891,10.422195,0.869565,20,0.75,6,0.25,2,0.130435,3,0.769231,0.869565,0.816327,0.142247,0.684783,0.864294,0.709677,0.590112,0.409888,0.290323,0.673945,0.709677,0.685066,0.142247,0.684783,0.773959,0.562009,0.709677,0,0,0,0,0,0,3871,19192,4308,100,100,?,?,?,?
haberman-weka.filters.unsupervised.attribute.Discretize-B10-M-1.0-Rfirst-last-precision6-weka.filters.unsupervised.attribute.NumericToNominal-Rfirst-last,2,4,weka.classifiers.bayes.NaiveBayes,'',5995231201785697655,20260418.0439,275,31,24,7,0,77.419355,22.580645,0,0.328173,0.334228,0.434659,86.290233,99.313357,25.547654,27.194063,-1.646409,0.824118,0.877228,-0.05311,2.563124,0.082681,10.032718,0.913043,21,0.625,5,0.375,3,0.086957,2,0.807692,0.913043,0.857143,0.342685,0.584239,0.780955,0.774194,0.48615,0.51385,0.225806,0.754094,0.774194,0.755051,0.342685,0.584239,0.705288,0.659341,0.774194,0,0,0,0,0,0,3871,19192,4308,96.774194,96.774194,?,?,?,?
haberman-weka.filters.unsupervised.attribute.Discretize-B10-M-1.0-Rfirst-last-precision6-weka.filters.unsupervised.attribute.NumericToNominal-Rfirst-last,2,5,weka.classifiers.bayes.NaiveBayes,'',5995231201785697655,20260418.0439,275,31,23,8,0,74.193548,25.806452,0,0.194805,0.372653,0.453665,96.21078,103.655971,25.547654,27.974981,-2.427327,0.824118,0.902419,-0.078301,-0.68473,-0.022088,-2.680207,0.913043,21,0.75,6,0.25,2,0.086957,2,0.777778,0.913043,0.84,0.212814,0.567935,0.755346,0.741935,0.578892,0.421108,0.258065,0.706093,0.741935,0.709247,0.212814,0.567935,0.670039,0.586667,0.741935,0,0,0,0,0,0,3871,19192,4308,100,100,?,?,?,?
haberman-weka.filters.unsupervised.attribute.Discretize-B10-M-1.0-Rfirst-last-precision6-weka.filters.unsupervised.attribute.NumericToNominal-Rfirst-last,2,6,weka.classifiers.bayes.NaiveBayes,'',5995231201785697655,20260418.0439,275,31,23,8,0,74.193548,25.806452,0,0.220126,0.353359,0.435985,88.155036,95.883827,27.024229,25.763137,1.261092,0.871749,0.831069,0.04068,3.440018,0.110968,12.729384,0.954545,21,0.777778,7,0.222222,2,0.045455,1,0.75,0.954545,0.84,0.271391,0.590909,0.794136,0.741935,0.565168,0.434832,0.258065,0.725806,0.741935,0.692903,0.271391,0.590909,0.714272,0.586667,0.741935,0.001,0,0,0,0,0,3871,19192,4308,100,100,?,?,?,?
haberman-weka.filters.unsupervised.attribute.Discretize-B10-M-1.0-Rfirst-last-precision6-weka.filters.unsupervised.attribute.NumericToNominal-Rfirst-last,2,7,weka.classifiers.bayes.NaiveBayes,'',5995231201785697655,20260418.0439,276,30,23,7,0,76.666667,23.333333,0,0.255319,0.326971,0.418279,83.648527,94.586816,25.099248,22.482492,2.616756,0.836642,0.749416,0.087225,3.69205,0.123068,14.709804,0.954545,21,0.75,6,0.25,2,0.045455,1,0.777778,0.954545,0.857143,0.301511,0.772727,0.91777,0.766667,0.562121,0.437879,0.233333,0.748148,0.766667,0.725541,0.301511,0.772727,0.811901,0.61039,0.766667,0,0,0,0,0,0,3871,19253,4247,100,100,?,?,?,?
haberman-weka.filters.unsupervised.attribute.Discretize-B10-M-1.0-Rfirst-last-precision6-weka.filters.unsupervised.attribute.NumericToNominal-Rfirst-last,2,8,weka.classifiers.bayes.NaiveBayes,'',5995231201785697655,20260418.0439,276,30,23,7,0,76.666667,23.333333,0,0.255319,0.31836,0.407284,81.445503,92.100431,25.099248,21.216182,3.883066,0.836642,0.707206,0.129436,4.235677,0.141189,16.875711,0.954545,21,0.75,6,0.25,2,0.045455,1,0.777778,0.954545,0.857143,0.301511,0.823864,0.940838,0.766667,0.562121,0.437879,0.233333,0.748148,0.766667,0.725541,0.301511,0.823864,0.837737,0.61039,0.766667,0,0,0,0,0,0,3871,19253,4247,100,100,?,?,?,?
haberman-weka.filters.unsupervised.attribute.Discretize-B10-M-1.0-Rfirst-last-precision6-weka.filters.unsupervised.attribute.NumericToNominal-Rfirst-last,2,9,weka.classifiers.bayes.NaiveBayes,'',5995231201785697655,20260418.0439,276,30,25,5,0,83.333333,16.666667,0,0.516129,0.324615,0.382178,83.045739,86.423251,25.099248,20.074758,5.02449,0.836642,0.669159,0.167483,4.663038,0.155435,18.578398,0.954545,21,0.5,4,0.5,4,0.045455,1,0.84,0.954545,0.893617,0.53936,0.784091,0.889612,0.833333,0.378788,0.621212,0.166667,0.829333,0.833333,0.819422,0.53936,0.784091,0.852559,0.754501,0.833333,0,0,0,0,0,0,3871,19253,4247,100,100,?,?,?,?
haberman-weka.filters.unsupervised.attribute.Discretize-B10-M-1.0-Rfirst-last-precision6-weka.filters.unsupervised.attribute.NumericToNominal-Rfirst-last,2,10,weka.classifiers.bayes.NaiveBayes,'',5995231201785697655,20260418.0439,276,30,23,7,0,76.666667,23.333333,0,0.173228,0.353978,0.440629,90.557614,99.641,25.099248,25.198663,-0.099415,0.836642,0.839955,-0.003314,1.778801,0.059293,7.087068,1,22,0.875,7,0.125,1,0,0,0.758621,1,0.862745,0.307941,0.5625,0.804785,0.766667,0.641667,0.358333,0.233333,0.822989,0.766667,0.691939,0.307941,0.5625,0.716573,0.542484,0.766667,0,0.001,0,0,0,0,3871,19253,4247,100,98.333333,?,?,?,?
haberman-weka.filters.unsupervised.attribute.Discretize-B10-M-1.0-Rfirst-last-precision6-weka.filters.unsupervised.attribute.NumericToNominal-Rfirst-last,3,1,weka.classifiers.bayes.NaiveBayes,'',5995231201785697655,20260418.0439,275,31,24,7,0,77.419355,22.580645,0,0.174905,0.327517,0.413026,84.557704,94.370586,25.547654,23.40396,2.143694,0.824118,0.754966,0.069151,3.825155,0.123392,14.972625,1,23,0.875,7,0.125,1,0,0,0.766667,1,0.867925,0.30957,0.684783,0.863469,0.774194,0.649194,0.350806,0.225806,0.826882,0.774194,0.701292,0.30957,0.684783,0.786019,0.545073,0.774194,0,0,0,0,0,0,3871,19192,4308,100,98.387097,?,?,?,?
haberman-weka.filters.unsupervised.attribute.Discretize-B10-M-1.0-Rfirst-last-precision6-weka.filters.unsupervised.attribute.NumericToNominal-Rfirst-last,3,2,weka.classifiers.bayes.NaiveBayes,'',5995231201785697655,20260418.0439,275,31,23,8,0,74.193548,25.806452,0,0,0.322471,0.429166,83.255003,98.058414,25.547654,24.262506,1.285148,0.824118,0.782661,0.041456,3.361265,0.108428,13.156843,1,23,1,8,0,0,0,0,0.741935,1,0.851852,?,0.706522,0.893691,0.741935,0.741935,0.258065,0.258065,?,0.741935,?,?,0.706522,0.766154,?,0.741935,0,0,0,0,0,0,3871,19192,4308,100,98.387097,?,?,?,?
haberman-weka.filters.unsupervised.attribute.Discretize-B10-M-1.0-Rfirst-last-precision6-weka.filters.unsupervised.attribute.NumericToNominal-Rfirst-last,3,3,weka.classifiers.bayes.NaiveBayes,'',5995231201785697655,20260418.0439,275,31,25,6,0,80.645161,19.354839,0,0.330935,0.34207,0.410444,88.314943,93.780578,25.547654,23.238782,2.308872,0.824118,0.749638,0.07448,2.659794,0.0858,10.41111,1,23,0.75,6,0.25,2,0,0,0.793103,1,0.884615,0.445282,0.671196,0.830477,0.806452,0.556452,0.443548,0.193548,0.846496,0.806452,0.759553,0.445282,0.671196,0.754122,0.642308,0.806452,0,0,0,0,0,0,3871,19192,4308,100,100,?,?,?,?
haberman-weka.filters.unsupervised.attribute.Discretize-B10-M-1.0-Rfirst-last-precision6-weka.filters.unsupervised.attribute.NumericToNominal-Rfirst-last,3,4,weka.classifiers.bayes.NaiveBayes,'',5995231201785697655,20260418.0439,275,31,23,8,0,74.193548,25.806452,0,0.194805,0.341374,0.435085,88.135177,99.410698,25.547654,28.073939,-2.526285,0.824118,0.905611,-0.081493,2.259691,0.072893,8.845003,0.913043,21,0.75,6,0.25,2,0.086957,2,0.777778,0.913043,0.84,0.212814,0.576087,0.751338,0.741935,0.578892,0.421108,0.258065,0.706093,0.741935,0.709247,0.212814,0.576087,0.691539,0.586667,0.741935,0,0,0,0,0,0,3871,19192,4308,96.774194,98.387097,?,?,?,?
haberman-weka.filters.unsupervised.attribute.Discretize-B10-M-1.0-Rfirst-last-precision6-weka.filters.unsupervised.attribute.NumericToNominal-Rfirst-last,3,5,weka.classifiers.bayes.NaiveBayes,'',5995231201785697655,20260418.0439,275,31,22,9,0,70.967742,29.032258,0,0.136223,0.361697,0.418007,93.382199,95.508767,25.547654,23.219748,2.327906,0.824118,0.749024,0.075094,0.627908,0.020255,2.457793,0.869565,20,0.75,6,0.25,2,0.130435,3,0.769231,0.869565,0.816327,0.142247,0.744565,0.895705,0.709677,0.590112,0.409888,0.290323,0.673945,0.709677,0.685066,0.142247,0.745266,0.784875,0.562009,0.709677,0,0,0,0,0,0,3871,19192,4308,100,96.774194,?,?,?,?
haberman-weka.filters.unsupervised.attribute.Discretize-B10-M-1.0-Rfirst-last-precision6-weka.filters.unsupervised.attribute.NumericToNominal-Rfirst-last,3,6,weka.classifiers.bayes.NaiveBayes,'',5995231201785697655,20260418.0439,275,31,21,10,0,67.741935,32.258065,0,0.098837,0.394729,0.466377,98.475743,102.567825,27.024229,27.886765,-0.862536,0.871749,0.899573,-0.027824,-1.350083,-0.043551,-4.995824,0.863636,19,0.777778,7,0.222222,2,0.136364,3,0.730769,0.863636,0.791667,0.105961,0.573232,0.802249,0.677419,0.591561,0.408439,0.322581,0.634739,0.677419,0.644777,0.105961,0.573232,0.695961,0.53869,0.677419,0,0,0,0,0,0,3871,19192,4308,100,100,?,?,?,?
haberman-weka.filters.unsupervised.attribute.Discretize-B10-M-1.0-Rfirst-last-precision6-weka.filters.unsupervised.attribute.NumericToNominal-Rfirst-last,3,7,weka.classifiers.bayes.NaiveBayes,'',5995231201785697655,20260418.0439,276,30,23,7,0,76.666667,23.333333,0,0.173228,0.329368,0.424194,84.261591,95.92438,25.099248,23.484226,1.615021,0.836642,0.782808,0.053834,3.506389,0.11688,13.970098,1,22,0.875,7,0.125,1,0,0,0.758621,1,0.862745,0.307941,0.676136,0.85164,0.766667,0.641667,0.358333,0.233333,0.822989,0.766667,0.691939,0.307941,0.675379,0.763126,0.542484,0.766667,0,0,0,0,0,0,3871,19253,4247,100,98.333333,?,?,?,?
haberman-weka.filters.unsupervised.attribute.Discretize-B10-M-1.0-Rfirst-last-precision6-weka.filters.unsupervised.attribute.NumericToNominal-Rfirst-last,3,8,weka.classifiers.bayes.NaiveBayes,'',5995231201785697655,20260418.0439,276,30,23,7,0,76.666667,23.333333,0,0.255319,0.333157,0.41076,85.230959,92.886522,25.099248,21.801183,3.298065,0.836642,0.726706,0.109935,3.340255,0.111342,13.308188,0.954545,21,0.75,6,0.25,2,0.045455,1,0.777778,0.954545,0.857143,0.301511,0.784091,0.922551,0.766667,0.562121,0.437879,0.233333,0.748148,0.766667,0.725541,0.301511,0.784091,0.82905,0.61039,0.766667,0,0,0,0,0,0,3871,19253,4247,100,100,?,?,?,?
haberman-weka.filters.unsupervised.attribute.Discretize-B10-M-1.0-Rfirst-last-precision6-weka.filters.unsupervised.attribute.NumericToNominal-Rfirst-last,3,9,weka.classifiers.bayes.NaiveBayes,'',5995231201785697655,20260418.0439,276,30,22,8,0,73.333333,26.666667,0,0.104478,0.370628,0.469519,94.817229,106.173961,25.099248,28.590459,-3.491211,0.836642,0.953015,-0.116374,0.45525,0.015175,1.8138,0.954545,21,0.875,7,0.125,1,0.045455,1,0.75,0.954545,0.84,0.141019,0.463068,0.765485,0.733333,0.653788,0.346212,0.266667,0.683333,0.733333,0.669333,0.141019,0.463068,0.638853,0.52,0.733333,0,0,0,0,0,0,3871,19253,4247,100,96.666667,?,?,?,?
haberman-weka.filters.unsupervised.attribute.Discretize-B10-M-1.0-Rfirst-last-precision6-weka.filters.unsupervised.attribute.NumericToNominal-Rfirst-last,3,10,weka.classifiers.bayes.NaiveBayes,'',5995231201785697655,20260418.0439,276,30,22,8,0,73.333333,26.666667,0,0.189189,0.317208,0.3918,81.15085,88.599052,25.099248,20.048683,5.050564,0.836642,0.668289,0.168352,4.455226,0.148508,17.750437,0.909091,20,0.75,6,0.25,2,0.090909,2,0.769231,0.909091,0.833333,0.206959,0.829545,0.942072,0.733333,0.574242,0.425758,0.266667,0.697436,0.733333,0.7,0.206959,0.829545,0.855853,0.583333,0.733333,0,0,0,0,0,0,3871,19253,4247,100,98.333333,?,?,?,?
haberman-weka.filters.unsupervised.attribute.Discretize-B10-M-1.0-Rfirst-last-precision6-weka.filters.unsupervised.attribute.NumericToNominal-Rfirst-last,4,1,weka.classifiers.bayes.NaiveBayes,'',5995231201785697655,20260418.0439,275,31,26,5,0,83.870968,16.129032,0,0.47099,0.307689,0.367859,79.438436,84.050479,25.547654,19.448387,6.099267,0.824118,0.627367,0.196751,6.160733,0.198733,24.114672,1,23,0.625,5,0.375,3,0,0,0.821429,1,0.901961,0.55501,0.809783,0.918773,0.83871,0.46371,0.53629,0.16129,0.867512,0.83871,0.809959,0.55501,0.809783,0.875444,0.723708,0.83871,0,0,0,0,0,0,3871,19192,4308,100,100,?,?,?,?
haberman-weka.filters.unsupervised.attribute.Discretize-B10-M-1.0-Rfirst-last-precision6-weka.filters.unsupervised.attribute.NumericToNominal-Rfirst-last,4,2,weka.classifiers.bayes.NaiveBayes,'',5995231201785697655,20260418.0439,275,31,23,8,0,74.193548,25.806452,0,0.194805,0.34002,0.415159,87.785806,94.857827,25.547654,23.252738,2.294916,0.824118,0.750088,0.07403,2.648547,0.085437,10.367087,0.913043,21,0.75,6,0.25,2,0.086957,2,0.777778,0.913043,0.84,0.212814,0.671196,0.874444,0.741935,0.578892,0.421108,0.258065,0.706093,0.741935,0.709247,0.212814,0.671196,0.788015,0.586667,0.741935,0,0.001,0,0,0,0,3871,19192,4308,100,98.387097,?,?,?,?
haberman-weka.filters.unsupervised.attribute.Discretize-B10-M-1.0-Rfirst-last-precision6-weka.filters.unsupervised.attribute.NumericToNominal-Rfirst-last,4,3,weka.classifiers.bayes.NaiveBayes,'',5995231201785697655,20260418.0439,275,31,25,6,0,80.645161,19.354839,0,0.396104,0.34596,0.420016,89.319382,95.967685,25.547654,24.539069,1.008585,0.824118,0.791583,0.032535,2.367701,0.076377,9.267781,0.956522,22,0.625,5,0.375,3,0.043478,1,0.814815,0.956522,0.88,0.432722,0.61413,0.787517,0.806452,0.47493,0.52507,0.193548,0.798088,0.806452,0.781935,0.432722,0.61413,0.710436,0.69,0.806452,0,0,0,0,0,0,3871,19192,4308,100,100,?,?,?,?
haberman-weka.filters.unsupervised.attribute.Discretize-B10-M-1.0-Rfirst-last-precision6-weka.filters.unsupervised.attribute.NumericToNominal-Rfirst-last,4,4,weka.classifiers.bayes.NaiveBayes,'',5995231201785697655,20260418.0439,275,31,23,8,0,74.193548,25.806452,0,0.107914,0.383666,0.467293,99.054231,106.76989,25.547654,31.052907,-5.505253,0.824118,1.001707,-0.177589,-1.495452,-0.04824,-5.853577,0.956522,22,0.875,7,0.125,1,0.043478,1,0.758621,0.956522,0.846154,0.145201,0.464674,0.699596,0.741935,0.660414,0.339586,0.258065,0.69188,0.741935,0.679404,0.145201,0.464674,0.624031,0.523077,0.741935,0,0,0,0,0,0,3871,19192,4308,96.774194,98.387097,?,?,?,?
haberman-weka.filters.unsupervised.attribute.Discretize-B10-M-1.0-Rfirst-last-precision6-weka.filters.unsupervised.attribute.NumericToNominal-Rfirst-last,4,5,weka.classifiers.bayes.NaiveBayes,'',5995231201785697655,20260418.0439,275,31,22,9,0,70.967742,29.032258,0,0.209632,0.329806,0.409916,85.148773,93.66001,25.547654,22.106959,3.440695,0.824118,0.713128,0.11099,2.882144,0.092972,11.281443,0.826087,19,0.625,5,0.375,3,0.173913,4,0.791667,0.826087,0.808511,0.210445,0.779891,0.924466,0.709677,0.50859,0.49141,0.290323,0.697965,0.709677,0.703089,0.210445,0.779891,0.819632,0.604255,0.709677,0,0,0,0,0,0,3871,19192,4308,100,95.16129,?,?,?,?
haberman-weka.filters.unsupervised.attribute.Discretize-B10-M-1.0-Rfirst-last-precision6-weka.filters.unsupervised.attribute.NumericToNominal-Rfirst-last,4,6,weka.classifiers.bayes.NaiveBayes,'',5995231201785697655,20260418.0439,275,31,23,8,0,74.193548,25.806452,0,0.220126,0.377295,0.464472,94.126355,102.149008,27.024229,29.656217,-2.631989,0.871749,0.956652,-0.084903,0.989028,0.031904,3.659784,0.954545,21,0.777778,7,0.222222,2,0.045455,1,0.75,0.954545,0.84,0.271391,0.563131,0.759915,0.741935,0.565168,0.434832,0.258065,0.725806,0.741935,0.692903,0.271391,0.563131,0.660506,0.586667,0.741935,0,0,0,0,0,0,3871,19192,4308,100,96.774194,?,?,?,?
haberman-weka.filters.unsupervised.attribute.Discretize-B10-M-1.0-Rfirst-last-precision6-weka.filters.unsupervised.attribute.NumericToNominal-Rfirst-last,4,7,weka.classifiers.bayes.NaiveBayes,'',5995231201785697655,20260418.0439,276,30,21,9,0,70,30,0,-0.062992,0.337044,0.44685,86.225474,101.047661,25.099248,25.655898,-0.55665,0.836642,0.855197,-0.018555,2.757969,0.091932,10.988252,0.954545,21,1,8,0,0,0.045455,1,0.724138,0.954545,0.823529,-0.111979,0.676136,0.852897,0.7,0.745455,0.254545,0.3,0.531034,0.7,0.603922,-0.111979,0.676136,0.751399,0.411765,0.7,0,0,0,0,0,0,3871,19253,4247,100,100,?,?,?,?
haberman-weka.filters.unsupervised.attribute.Discretize-B10-M-1.0-Rfirst-last-precision6-weka.filters.unsupervised.attribute.NumericToNominal-Rfirst-last,4,8,weka.classifiers.bayes.NaiveBayes,'',5995231201785697655,20260418.0439,276,30,24,6,0,80,20,0,0.328358,0.304505,0.396439,77.901001,89.648081,25.099248,21.040621,4.058627,0.836642,0.701354,0.135288,5.420779,0.180693,21.597377,1,22,0.75,6,0.25,2,0,0,0.785714,1,0.88,0.443203,0.71875,0.868113,0.8,0.55,0.45,0.2,0.842857,0.8,0.752,0.443203,0.71875,0.797031,0.64,0.8,0,0,0,0,0,0,3871,19253,4247,100,98.333333,?,?,?,?
haberman-weka.filters.unsupervised.attribute.Discretize-B10-M-1.0-Rfirst-last-precision6-weka.filters.unsupervised.attribute.NumericToNominal-Rfirst-last,4,9,weka.classifiers.bayes.NaiveBayes,'',5995231201785697655,20260418.0439,276,30,24,6,0,80,20,0,0.328358,0.318148,0.407986,81.391292,92.259207,25.099248,22.911846,2.187402,0.836642,0.763728,0.072913,5.157818,0.171927,20.549691,1,22,0.75,6,0.25,2,0,0,0.785714,1,0.88,0.443203,0.659091,0.785023,0.8,0.55,0.45,0.2,0.842857,0.8,0.752,0.443203,0.659091,0.737435,0.64,0.8,0,0,0,0,0,0,3871,19253,4247,100,100,?,?,?,?
haberman-weka.filters.unsupervised.attribute.Discretize-B10-M-1.0-Rfirst-last-precision6-weka.filters.unsupervised.attribute.NumericToNominal-Rfirst-last,4,10,weka.classifiers.bayes.NaiveBayes,'',5995231201785697655,20260418.0439,276,30,19,11,0,63.333333,36.666667,0,-0.064516,0.410421,0.490245,104.997197,110.860841,25.099248,29.352898,-4.25365,0.836642,0.97843,-0.141788,-3.872935,-0.129098,-15.430483,0.818182,18,0.875,7,0.125,1,0.181818,4,0.72,0.818182,0.765957,-0.06742,0.514205,0.800393,0.633333,0.690152,0.309848,0.366667,0.581333,0.633333,0.602728,-0.06742,0.514205,0.670153,0.459902,0.633333,0,0,0,0,0,0,3871,19253,4247,100,100,?,?,?,?
haberman-weka.filters.unsupervised.attribute.Discretize-B10-M-1.0-Rfirst-last-precision6-weka.filters.unsupervised.attribute.NumericToNominal-Rfirst-last,5,1,weka.classifiers.bayes.NaiveBayes,'',5995231201785697655,20260418.0439,275,31,22,9,0,70.967742,29.032258,0,-0.060837,0.365235,0.467509,94.295709,106.81907,25.547654,30.161607,-4.613953,0.824118,0.972955,-0.148837,-0.013285,-0.000429,-0.052002,0.956522,22,1,8,0,0,0.043478,1,0.733333,0.956522,0.830189,-0.107676,0.464674,0.731254,0.709677,0.753156,0.246844,0.290323,0.544086,0.709677,0.615946,-0.107676,0.464674,0.614562,0.415094,0.709677,0,0,0,0,0,0,3871,19192,4308,100,98.387097,?,?,?,?
haberman-weka.filters.unsupervised.attribute.Discretize-B10-M-1.0-Rfirst-last-precision6-weka.filters.unsupervised.attribute.NumericToNominal-Rfirst-last,5,2,weka.classifiers.bayes.NaiveBayes,'',5995231201785697655,20260418.0439,275,31,21,10,0,67.741935,32.258065,0,0.157609,0.375548,0.439059,96.958244,100.318666,25.547654,25.211409,0.336246,0.824118,0.813271,0.010847,-0.638067,-0.020583,-2.497555,0.782609,18,0.625,5,0.375,3,0.217391,5,0.782609,0.782609,0.782609,0.157609,0.663043,0.850952,0.677419,0.519811,0.480189,0.322581,0.677419,0.677419,0.677419,0.157609,0.663043,0.75756,0.578804,0.677419,0,0,0,0,0,0,3871,19192,4308,100,100,?,?,?,?
haberman-weka.filters.unsupervised.attribute.Discretize-B10-M-1.0-Rfirst-last-precision6-weka.filters.unsupervised.attribute.NumericToNominal-Rfirst-last,5,3,weka.classifiers.bayes.NaiveBayes,'',5995231201785697655,20260418.0439,275,31,27,4,0,87.096774,12.903226,0,0.597403,0.310274,0.358319,80.105974,81.870734,25.547654,18.680742,6.866912,0.824118,0.602605,0.221513,6.015227,0.19404,23.545124,1,23,0.5,4,0.5,4,0,0,0.851852,1,0.92,0.65263,0.910326,0.965045,0.870968,0.370968,0.629032,0.129032,0.890084,0.870968,0.854624,0.65263,0.910326,0.928659,0.793333,0.870968,0,0,0,0,0,0,3871,19192,4308,100,100,?,?,?,?
haberman-weka.filters.unsupervised.attribute.Discretize-B10-M-1.0-Rfirst-last-precision6-weka.filters.unsupervised.attribute.NumericToNominal-Rfirst-last,5,4,weka.classifiers.bayes.NaiveBayes,'',5995231201785697655,20260418.0439,275,31,20,11,0,64.516129,35.483871,0,-0.163823,0.353828,0.442345,91.350674,101.069662,25.547654,25.187804,0.35985,0.824118,0.81251,0.011608,1.09135,0.035205,4.27182,0.869565,20,1,8,0,0,0.130435,3,0.714286,0.869565,0.784314,-0.193047,0.728261,0.906751,0.645161,0.775596,0.224404,0.354839,0.529954,0.645161,0.58191,-0.193047,0.728261,0.7794,0.392157,0.645161,0,0,0,0,0,0,3871,19192,4308,100,98.387097,?,?,?,?
haberman-weka.filters.unsupervised.attribute.Discretize-B10-M-1.0-Rfirst-last-precision6-weka.filters.unsupervised.attribute.NumericToNominal-Rfirst-last,5,5,weka.classifiers.bayes.NaiveBayes,'',5995231201785697655,20260418.0439,275,31,23,8,0,74.193548,25.806452,0,0.326087,0.33489,0.38942,86.461143,88.977029,25.547654,20.983148,4.564506,0.824118,0.676876,0.147242,3.269209,0.105458,12.796514,0.826087,19,0.5,4,0.5,4,0.173913,4,0.826087,0.826087,0.826087,0.326087,0.820652,0.934964,0.741935,0.415849,0.584151,0.258065,0.741935,0.741935,0.741935,0.326087,0.820652,0.854214,0.663043,0.741935,0,0,0,0,0,0,3871,19192,4308,100,100,?,?,?,?
haberman-weka.filters.unsupervised.attribute.Discretize-B10-M-1.0-Rfirst-last-precision6-weka.filters.unsupervised.attribute.NumericToNominal-Rfirst-last,5,6,weka.classifiers.bayes.NaiveBayes,'',5995231201785697655,20260418.0439,275,31,22,9,0,70.967742,29.032258,0,0.085246,0.358456,0.47003,89.426486,103.371349,27.024229,29.101836,-2.077608,0.871749,0.938769,-0.06702,2.196402,0.070852,8.127528,0.954545,21,0.888889,8,0.111111,1,0.045455,1,0.724138,0.954545,0.823529,0.12131,0.613636,0.799585,0.709677,0.644021,0.355979,0.290323,0.659066,0.709677,0.637226,0.12131,0.612903,0.686283,0.502674,0.709677,0.001,0,0,0,0,0,3871,19192,4308,100,96.774194,?,?,?,?
haberman-weka.filters.unsupervised.attribute.Discretize-B10-M-1.0-Rfirst-last-precision6-weka.filters.unsupervised.attribute.NumericToNominal-Rfirst-last,5,7,weka.classifiers.bayes.NaiveBayes,'',5995231201785697655,20260418.0439,276,30,24,6,0,80,20,0,0.328358,0.322491,0.425813,82.502192,96.290551,25.099248,25.228632,-0.129384,0.836642,0.840954,-0.004313,4.353242,0.145108,17.344113,1,22,0.75,6,0.25,2,0,0,0.785714,1,0.88,0.443203,0.596591,0.808393,0.8,0.55,0.45,0.2,0.842857,0.8,0.752,0.443203,0.596591,0.723766,0.64,0.8,0,0,0,0,0,0,3871,19253,4247,96.666667,95,?,?,?,?
haberman-weka.filters.unsupervised.attribute.Discretize-B10-M-1.0-Rfirst-last-precision6-weka.filters.unsupervised.attribute.NumericToNominal-Rfirst-last,5,8,weka.classifiers.bayes.NaiveBayes,'',5995231201785697655,20260418.0439,276,30,22,8,0,73.333333,26.666667,0,0.104478,0.348803,0.448108,89.233525,101.332168,25.099248,27.618368,-2.51912,0.836642,0.920612,-0.083971,2.359753,0.078658,9.401689,0.954545,21,0.875,7,0.125,1,0.045455,1,0.75,0.954545,0.84,0.141019,0.519886,0.754025,0.733333,0.653788,0.346212,0.266667,0.683333,0.733333,0.669333,0.141019,0.519886,0.668479,0.52,0.733333,0,0,0,0,0,0,3871,19253,4247,100,96.666667,?,?,?,?
haberman-weka.filters.unsupervised.attribute.Discretize-B10-M-1.0-Rfirst-last-precision6-weka.filters.unsupervised.attribute.NumericToNominal-Rfirst-last,5,9,weka.classifiers.bayes.NaiveBayes,'',5995231201785697655,20260418.0439,276,30,22,8,0,73.333333,26.666667,0,0.189189,0.33956,0.430549,86.868932,97.361425,25.099248,25.592421,-0.493174,0.836642,0.853081,-0.016439,3.116567,0.103886,12.416975,0.909091,20,0.75,6,0.25,2,0.090909,2,0.769231,0.909091,0.833333,0.206959,0.539773,0.730426,0.733333,0.574242,0.425758,0.266667,0.697436,0.733333,0.7,0.206959,0.539773,0.663039,0.583333,0.733333,0,0,0,0,0,0,3871,19253,4247,100,100,?,?,?,?
haberman-weka.filters.unsupervised.attribute.Discretize-B10-M-1.0-Rfirst-last-precision6-weka.filters.unsupervised.attribute.NumericToNominal-Rfirst-last,5,10,weka.classifiers.bayes.NaiveBayes,'',5995231201785697655,20260418.0439,276,30,23,7,0,76.666667,23.333333,0,0.322581,0.363229,0.427596,92.924114,96.69364,25.099248,23.840724,1.258524,0.836642,0.794691,0.041951,0.241388,0.008046,0.961736,0.909091,20,0.625,5,0.375,3,0.090909,2,0.8,0.909091,0.851064,0.3371,0.630682,0.832118,0.766667,0.482576,0.517424,0.233333,0.746667,0.766667,0.74719,0.3371,0.630682,0.76422,0.656301,0.766667,0,0,0,0,0,0,3871,19253,4247,100,98.333333,?,?,?,?
haberman-weka.filters.unsupervised.attribute.Discretize-B10-M-1.0-Rfirst-last-precision6-weka.filters.unsupervised.attribute.NumericToNominal-Rfirst-last,6,1,weka.classifiers.bayes.NaiveBayes,'',5995231201785697655,20260418.0439,275,31,23,8,0,74.193548,25.806452,0,0.107914,0.320196,0.434629,82.667663,99.306638,25.547654,27.070991,-1.523337,0.824118,0.873258,-0.04914,3.616589,0.116664,14.156245,0.956522,22,0.875,7,0.125,1,0.043478,1,0.758621,0.956522,0.846154,0.145201,0.592391,0.790811,0.741935,0.660414,0.339586,0.258065,0.69188,0.741935,0.679404,0.145201,0.592391,0.707983,0.523077,0.741935,0,0,0,0,0,0,3871,19192,4308,96.774194,96.774194,?,?,?,?
haberman-weka.filters.unsupervised.attribute.Discretize-B10-M-1.0-Rfirst-last-precision6-weka.filters.unsupervised.attribute.NumericToNominal-Rfirst-last,6,2,weka.classifiers.bayes.NaiveBayes,'',5995231201785697655,20260418.0439,275,31,25,6,0,80.645161,19.354839,0,0.396104,0.332574,0.394928,85.863391,90.235477,25.547654,21.531325,4.016329,0.824118,0.694559,0.129559,2.947218,0.095072,11.536157,0.956522,22,0.625,5,0.375,3,0.043478,1,0.814815,0.956522,0.88,0.432722,0.779891,0.915895,0.806452,0.47493,0.52507,0.193548,0.798088,0.806452,0.781935,0.432722,0.779891,0.850828,0.69,0.806452,0,0,0,0,0,0,3871,19192,4308,100,100,?,?,?,?
haberman-weka.filters.unsupervised.attribute.Discretize-B10-M-1.0-Rfirst-last-precision6-weka.filters.unsupervised.attribute.NumericToNominal-Rfirst-last,6,3,weka.classifiers.bayes.NaiveBayes,'',5995231201785697655,20260418.0439,275,31,19,12,0,61.290323,38.709677,0,-0.207792,0.370122,0.461584,95.557307,105.465342,25.547654,27.644623,-2.096969,0.824118,0.891762,-0.067644,-0.543895,-0.017545,-2.128944,0.826087,19,1,8,0,0,0.173913,4,0.703704,0.826087,0.76,-0.227002,0.61413,0.827227,0.612903,0.786816,0.213184,0.387097,0.522103,0.612903,0.563871,-0.227002,0.61413,0.700295,0.38,0.612903,0,0,0,0,0,0,3871,19192,4308,100,100,?,?,?,?
haberman-weka.filters.unsupervised.attribute.Discretize-B10-M-1.0-Rfirst-last-precision6-weka.filters.unsupervised.attribute.NumericToNominal-Rfirst-last,6,4,weka.classifiers.bayes.NaiveBayes,'',5995231201785697655,20260418.0439,275,31,22,9,0,70.967742,29.032258,0,0.209632,0.41722,0.497962,107.717017,113.777261,25.547654,31.839554,-6.2919,0.824118,1.027082,-0.202965,-4.595363,-0.148238,-17.987418,0.826087,19,0.625,5,0.375,3,0.173913,4,0.791667,0.826087,0.808511,0.210445,0.472826,0.742761,0.709677,0.50859,0.49141,0.290323,0.697965,0.709677,0.703089,0.210445,0.473527,0.636996,0.604255,0.709677,0,0,0,0,0,0,3871,19192,4308,100,98.387097,?,?,?,?
haberman-weka.filters.unsupervised.attribute.Discretize-B10-M-1.0-Rfirst-last-precision6-weka.filters.unsupervised.attribute.NumericToNominal-Rfirst-last,6,5,weka.classifiers.bayes.NaiveBayes,'',5995231201785697655,20260418.0439,275,31,25,6,0,80.645161,19.354839,0,0.330935,0.325211,0.392047,83.962268,89.577129,25.547654,21.133892,4.413762,0.824118,0.681738,0.142379,4.008132,0.129295,15.688846,1,23,0.75,6,0.25,2,0,0,0.793103,1,0.884615,0.445282,0.76087,0.912182,0.806452,0.556452,0.443548,0.193548,0.846496,0.806452,0.759553,0.445282,0.76087,0.833289,0.642308,0.806452,0,0,0,0,0,0,3871,19192,4308,100,98.387097,?,?,?,?
haberman-weka.filters.unsupervised.attribute.Discretize-B10-M-1.0-Rfirst-last-precision6-weka.filters.unsupervised.attribute.NumericToNominal-Rfirst-last,6,6,weka.classifiers.bayes.NaiveBayes,'',5995231201785697655,20260418.0439,275,31,23,8,0,74.193548,25.806452,0,0.220126,0.340405,0.423666,84.92333,93.174745,27.024229,23.643641,3.380588,0.871749,0.762698,0.109051,3.643267,0.117525,13.481482,0.954545,21,0.777778,7,0.222222,2,0.045455,1,0.75,0.954545,0.84,0.271391,0.762626,0.898035,0.741935,0.565168,0.434832,0.258065,0.725806,0.741935,0.692903,0.271391,0.762626,0.812672,0.586667,0.741935,0,0,0,0,0,0,3871,19192,4308,100,98.387097,?,?,?,?
haberman-weka.filters.unsupervised.attribute.Discretize-B10-M-1.0-Rfirst-last-precision6-weka.filters.unsupervised.attribute.NumericToNominal-Rfirst-last,6,7,weka.classifiers.bayes.NaiveBayes,'',5995231201785697655,20260418.0439,276,30,26,4,0,86.666667,13.333333,0,0.62963,0.303897,0.35173,77.745414,79.537937,25.099248,17.602581,7.496667,0.836642,0.586753,0.249889,6.857715,0.228591,27.322393,0.954545,21,0.375,3,0.625,5,0.045455,1,0.875,0.954545,0.913043,0.640712,0.926136,0.97776,0.866667,0.287121,0.712879,0.133333,0.863889,0.866667,0.860041,0.640712,0.926136,0.908505,0.813665,0.866667,0,0,0,0,0,0,3871,19253,4247,100,100,?,?,?,?
haberman-weka.filters.unsupervised.attribute.Discretize-B10-M-1.0-Rfirst-last-precision6-weka.filters.unsupervised.attribute.NumericToNominal-Rfirst-last,6,8,weka.classifiers.bayes.NaiveBayes,'',5995231201785697655,20260418.0439,276,30,24,6,0,80,20,0,0.391892,0.329888,0.404568,84.394621,91.486272,25.099248,21.746207,3.353041,0.836642,0.724874,0.111768,3.520233,0.117341,14.025255,0.954545,21,0.625,5,0.375,3,0.045455,1,0.807692,0.954545,0.875,0.428701,0.75,0.888988,0.8,0.470455,0.529545,0.2,0.792308,0.8,0.775,0.428701,0.75,0.81832,0.6875,0.8,0,0,0,0,0,0,3871,19253,4247,100,100,?,?,?,?
haberman-weka.filters.unsupervised.attribute.Discretize-B10-M-1.0-Rfirst-last-precision6-weka.filters.unsupervised.attribute.NumericToNominal-Rfirst-last,6,9,weka.classifiers.bayes.NaiveBayes,'',5995231201785697655,20260418.0439,276,30,22,8,0,73.333333,26.666667,0,0,0.357019,0.454848,91.335436,102.856355,25.099248,26.615149,-1.515902,0.836642,0.887172,-0.05053,1.263625,0.042121,5.034512,1,22,1,8,0,0,0,0,0.733333,1,0.846154,?,0.511364,0.798016,0.733333,0.733333,0.266667,0.266667,?,0.733333,?,?,0.511364,0.660973,?,0.733333,0,0,0,0,0,0,3871,19253,4247,100,100,?,?,?,?
haberman-weka.filters.unsupervised.attribute.Discretize-B10-M-1.0-Rfirst-last-precision6-weka.filters.unsupervised.attribute.NumericToNominal-Rfirst-last,6,10,weka.classifiers.bayes.NaiveBayes,'',5995231201785697655,20260418.0439,276,30,23,7,0,76.666667,23.333333,0,0.173228,0.332178,0.416441,84.980627,94.171182,25.099248,23.024806,2.074442,0.836642,0.767494,0.069148,3.684304,0.12281,14.67894,1,22,0.875,7,0.125,1,0,0,0.758621,1,0.862745,0.307941,0.633523,0.832994,0.766667,0.641667,0.358333,0.233333,0.822989,0.766667,0.691939,0.307941,0.633523,0.756689,0.542484,0.766667,0,0,0,0,0,0,3871,19253,4247,100,96.666667,?,?,?,?
haberman-weka.filters.unsupervised.attribute.Discretize-B10-M-1.0-Rfirst-last-precision6-weka.filters.unsupervised.attribute.NumericToNominal-Rfirst-last,7,1,weka.classifiers.bayes.NaiveBayes,'',5995231201785697655,20260418.0439,275,31,22,9,0,70.967742,29.032258,0,0.047782,0.363534,0.463688,93.8566,105.946155,25.547654,29.169177,-3.621523,0.824118,0.940941,-0.116823,-0.05892,-0.001901,-0.230626,0.913043,21,0.875,7,0.125,1,0.086957,2,0.75,0.913043,0.823529,0.056305,0.581522,0.814347,0.709677,0.671634,0.328366,0.290323,0.642473,0.709677,0.657927,0.056305,0.581522,0.693313,0.502674,0.709677,0,0,0,0,0,0,3871,19192,4308,96.774194,93.548387,?,?,?,?
haberman-weka.filters.unsupervised.attribute.Discretize-B10-M-1.0-Rfirst-last-precision6-weka.filters.unsupervised.attribute.NumericToNominal-Rfirst-last,7,2,weka.classifiers.bayes.NaiveBayes,'',5995231201785697655,20260418.0439,275,31,23,8,0,74.193548,25.806452,0,0.107914,0.339368,0.443707,87.617404,101.380765,25.547654,27.953651,-2.405997,0.824118,0.901731,-0.077613,2.63489,0.084996,10.313628,0.956522,22,0.875,7,0.125,1,0.043478,1,0.758621,0.956522,0.846154,0.145201,0.527174,0.728771,0.741935,0.660414,0.339586,0.258065,0.69188,0.741935,0.679404,0.145201,0.526473,0.652428,0.523077,0.741935,0,0,0,0,0,0,3871,19192,4308,100,100,?,?,?,?
haberman-weka.filters.unsupervised.attribute.Discretize-B10-M-1.0-Rfirst-last-precision6-weka.filters.unsupervised.attribute.NumericToNominal-Rfirst-last,7,3,weka.classifiers.bayes.NaiveBayes,'',5995231201785697655,20260418.0439,275,31,24,7,0,77.419355,22.580645,0,0.174905,0.329428,0.421919,85.050947,96.40249,25.547654,24.206405,1.341249,0.824118,0.780852,0.043266,3.362356,0.108463,13.161116,1,23,0.875,7,0.125,1,0,0,0.766667,1,0.867925,0.30957,0.649457,0.846623,0.774194,0.649194,0.350806,0.225806,0.826882,0.774194,0.701292,0.30957,0.649457,0.760418,0.545073,0.774194,0,0,0,0,0,0,3871,19192,4308,100,96.774194,?,?,?,?
haberman-weka.filters.unsupervised.attribute.Discretize-B10-M-1.0-Rfirst-last-precision6-weka.filters.unsupervised.attribute.NumericToNominal-Rfirst-last,7,4,weka.classifiers.bayes.NaiveBayes,'',5995231201785697655,20260418.0439,275,31,25,6,0,80.645161,19.354839,0,0.330935,0.306688,0.373813,79.180174,85.410873,25.547654,19.715408,5.832246,0.824118,0.635981,0.188137,5.795036,0.186937,22.683241,1,23,0.75,6,0.25,2,0,0,0.793103,1,0.884615,0.445282,0.828804,0.930421,0.806452,0.556452,0.443548,0.193548,0.846496,0.806452,0.759553,0.445282,0.828804,0.874319,0.642308,0.806452,0,0,0,0,0,0,3871,19192,4308,100,100,?,?,?,?
haberman-weka.filters.unsupervised.attribute.Discretize-B10-M-1.0-Rfirst-last-precision6-weka.filters.unsupervised.attribute.NumericToNominal-Rfirst-last,7,5,weka.classifiers.bayes.NaiveBayes,'',5995231201785697655,20260418.0439,275,31,28,3,0,90.322581,9.677419,0,0.712074,0.297941,0.355437,76.921856,81.212279,25.547654,18.539876,7.007779,0.824118,0.598061,0.226057,6.659166,0.214812,26.065667,1,23,0.375,3,0.625,5,0,0,0.884615,1,0.938776,0.743562,0.826087,0.928487,0.903226,0.278226,0.721774,0.096774,0.914392,0.903226,0.895022,0.743562,0.826087,0.889331,0.854003,0.903226,0,0.001,0,0,0,0,3871,19192,4308,100,100,?,?,?,?
haberman-weka.filters.unsupervised.attribute.Discretize-B10-M-1.0-Rfirst-last-precision6-weka.filters.unsupervised.attribute.NumericToNominal-Rfirst-last,7,6,weka.classifiers.bayes.NaiveBayes,'',5995231201785697655,20260418.0439,275,31,22,9,0,70.967742,29.032258,0,0.1571,0.376125,0.455717,93.834605,100.223566,27.024229,27.803907,-0.779679,0.871749,0.8969,-0.025151,0.427942,0.013805,1.583548,0.909091,20,0.777778,7,0.222222,2,0.090909,2,0.740741,0.909091,0.816327,0.177799,0.631313,0.804254,0.709677,0.578364,0.421636,0.290323,0.670848,0.709677,0.668659,0.177799,0.631313,0.696345,0.562009,0.709677,0,0,0,0,0,0,3871,19192,4308,96.774194,96.774194,?,?,?,?
haberman-weka.filters.unsupervised.attribute.Discretize-B10-M-1.0-Rfirst-last-precision6-weka.filters.unsupervised.attribute.NumericToNominal-Rfirst-last,7,7,weka.classifiers.bayes.NaiveBayes,'',5995231201785697655,20260418.0439,276,30,22,8,0,73.333333,26.666667,0,0.189189,0.335634,0.413349,85.864569,93.471933,25.099248,22.1189,2.980348,0.836642,0.737297,0.099345,2.763666,0.092122,11.01095,0.909091,20,0.75,6,0.25,2,0.090909,2,0.769231,0.909091,0.833333,0.206959,0.752841,0.907584,0.733333,0.574242,0.425758,0.266667,0.697436,0.733333,0.7,0.206959,0.752841,0.820795,0.583333,0.733333,0,0,0,0,0,0,3871,19253,4247,100,100,?,?,?,?
haberman-weka.filters.unsupervised.attribute.Discretize-B10-M-1.0-Rfirst-last-precision6-weka.filters.unsupervised.attribute.NumericToNominal-Rfirst-last,7,8,weka.classifiers.bayes.NaiveBayes,'',5995231201785697655,20260418.0439,276,30,25,5,0,83.333333,16.666667,0,0.516129,0.323679,0.397686,82.806282,89.930168,25.099248,21.391722,3.707525,0.836642,0.713057,0.123584,4.504971,0.150166,17.948629,0.954545,21,0.5,4,0.5,4,0.045455,1,0.84,0.954545,0.893617,0.53936,0.724432,0.864251,0.833333,0.378788,0.621212,0.166667,0.829333,0.833333,0.819422,0.53936,0.724432,0.777545,0.754501,0.833333,0,0,0,0,0,0,3871,19253,4247,100,100,?,?,?,?
haberman-weka.filters.unsupervised.attribute.Discretize-B10-M-1.0-Rfirst-last-precision6-weka.filters.unsupervised.attribute.NumericToNominal-Rfirst-last,7,9,weka.classifiers.bayes.NaiveBayes,'',5995231201785697655,20260418.0439,276,30,18,12,0,60,40,0,-0.216216,0.421649,0.506085,107.869758,114.442629,25.099248,30.741083,-5.641836,0.836642,1.024703,-0.188061,-5.182457,-0.172749,-20.647857,0.818182,18,1,8,0,0,0.181818,4,0.692308,0.818182,0.75,-0.236525,0.505682,0.800827,0.6,0.781818,0.218182,0.4,0.507692,0.6,0.55,-0.236525,0.505682,0.661482,0.375,0.6,0,0,0,0,0,0,3871,19253,4247,100,98.333333,?,?,?,?
haberman-weka.filters.unsupervised.attribute.Discretize-B10-M-1.0-Rfirst-last-precision6-weka.filters.unsupervised.attribute.NumericToNominal-Rfirst-last,7,10,weka.classifiers.bayes.NaiveBayes,'',5995231201785697655,20260418.0439,276,30,22,8,0,73.333333,26.666667,0,0.104478,0.351143,0.420518,89.83241,95.093244,25.099248,23.373552,1.725696,0.836642,0.779118,0.057523,2.905993,0.096866,11.578009,0.954545,21,0.875,7,0.125,1,0.045455,1,0.75,0.954545,0.84,0.141019,0.653409,0.799357,0.733333,0.653788,0.346212,0.266667,0.683333,0.733333,0.669333,0.141019,0.653409,0.7375,0.52,0.733333,0,0,0,0,0,0,3871,19253,4247,100,100,?,?,?,?
haberman-weka.filters.unsupervised.attribute.Discretize-B10-M-1.0-Rfirst-last-precision6-weka.filters.unsupervised.attribute.NumericToNominal-Rfirst-last,8,1,weka.classifiers.bayes.NaiveBayes,'',5995231201785697655,20260418.0439,275,31,24,7,0,77.419355,22.580645,0,0.328173,0.339131,0.413734,87.556059,94.532336,25.547654,23.539354,2.0083,0.824118,0.759334,0.064784,2.834634,0.09144,11.095475,0.913043,21,0.625,5,0.375,3,0.086957,2,0.807692,0.913043,0.857143,0.342685,0.682065,0.850685,0.774194,0.48615,0.51385,0.225806,0.754094,0.774194,0.755051,0.342685,0.680663,0.753455,0.659341,0.774194,0,0,0,0,0,0,3871,19192,4308,100,100,?,?,?,?
haberman-weka.filters.unsupervised.attribute.Discretize-B10-M-1.0-Rfirst-last-precision6-weka.filters.unsupervised.attribute.NumericToNominal-Rfirst-last,8,2,weka.classifiers.bayes.NaiveBayes,'',5995231201785697655,20260418.0439,275,31,25,6,0,80.645161,19.354839,0,0.330935,0.339136,0.42656,87.557422,97.462973,25.547654,26.235096,-0.687442,0.824118,0.846293,-0.022176,2.527794,0.081542,9.894427,1,23,0.75,6,0.25,2,0,0,0.793103,1,0.884615,0.445282,0.570652,0.756573,0.806452,0.556452,0.443548,0.193548,0.846496,0.806452,0.759553,0.445282,0.570652,0.687368,0.642308,0.806452,0,0,0,0,0,0,3871,19192,4308,96.774194,98.387097,?,?,?,?
haberman-weka.filters.unsupervised.attribute.Discretize-B10-M-1.0-Rfirst-last-precision6-weka.filters.unsupervised.attribute.NumericToNominal-Rfirst-last,8,3,weka.classifiers.bayes.NaiveBayes,'',5995231201785697655,20260418.0439,275,31,23,8,0,74.193548,25.806452,0,0.107914,0.346066,0.432613,89.346523,98.845877,25.547654,24.710491,0.837163,0.824118,0.797113,0.027005,1.247925,0.040256,4.884696,0.956522,22,0.875,7,0.125,1,0.043478,1,0.758621,0.956522,0.846154,0.145201,0.673913,0.876928,0.741935,0.660414,0.339586,0.258065,0.69188,0.741935,0.679404,0.145201,0.673913,0.766514,0.523077,0.741935,0,0,0,0,0,0,3871,19192,4308,100,100,?,?,?,?
haberman-weka.filters.unsupervised.attribute.Discretize-B10-M-1.0-Rfirst-last-precision6-weka.filters.unsupervised.attribute.NumericToNominal-Rfirst-last,8,4,weka.classifiers.bayes.NaiveBayes,'',5995231201785697655,20260418.0439,275,31,22,9,0,70.967742,29.032258,0,0.047782,0.370958,0.47045,95.773196,107.491218,25.547654,29.051822,-3.504167,0.824118,0.937156,-0.113038,-0.254797,-0.008219,-0.997342,0.913043,21,0.875,7,0.125,1,0.086957,2,0.75,0.913043,0.823529,0.056305,0.519022,0.804414,0.709677,0.671634,0.328366,0.290323,0.642473,0.709677,0.657927,0.056305,0.519022,0.675401,0.502674,0.709677,0,0,0,0,0,0,3871,19192,4308,100,96.774194,?,?,?,?
haberman-weka.filters.unsupervised.attribute.Discretize-B10-M-1.0-Rfirst-last-precision6-weka.filters.unsupervised.attribute.NumericToNominal-Rfirst-last,8,5,weka.classifiers.bayes.NaiveBayes,'',5995231201785697655,20260418.0439,275,31,22,9,0,70.967742,29.032258,0,0.047782,0.363171,0.463142,93.762724,105.821475,25.547654,32.105732,-6.558078,0.824118,1.035669,-0.211551,0.204148,0.006585,0.799089,0.913043,21,0.875,7,0.125,1,0.086957,2,0.75,0.913043,0.823529,0.056305,0.472826,0.703623,0.709677,0.671634,0.328366,0.290323,0.642473,0.709677,0.657927,0.056305,0.472826,0.621496,0.502674,0.709677,0,0,0,0,0,0,3871,19192,4308,93.548387,91.935484,?,?,?,?
haberman-weka.filters.unsupervised.attribute.Discretize-B10-M-1.0-Rfirst-last-precision6-weka.filters.unsupervised.attribute.NumericToNominal-Rfirst-last,8,6,weka.classifiers.bayes.NaiveBayes,'',5995231201785697655,20260418.0439,275,31,21,10,0,67.741935,32.258065,0,0.098837,0.388838,0.462525,97.006168,101.720781,27.024229,27.317449,-0.293221,0.871749,0.881208,-0.009459,-0.474006,-0.015291,-1.754006,0.863636,19,0.777778,7,0.222222,2,0.136364,3,0.730769,0.863636,0.791667,0.105961,0.636364,0.844848,0.677419,0.591561,0.408439,0.322581,0.634739,0.677419,0.644777,0.105961,0.636364,0.710259,0.53869,0.677419,0,0,0,0,0,0,3871,19192,4308,100,98.387097,?,?,?,?
haberman-weka.filters.unsupervised.attribute.Discretize-B10-M-1.0-Rfirst-last-precision6-weka.filters.unsupervised.attribute.NumericToNominal-Rfirst-last,8,7,weka.classifiers.bayes.NaiveBayes,'',5995231201785697655,20260418.0439,276,30,20,10,0,66.666667,33.333333,0,-0.013514,0.363473,0.451643,92.986744,102.131601,25.099248,25.971944,-0.872696,0.836642,0.865731,-0.02909,0.932662,0.031089,3.715897,0.863636,19,0.875,7,0.125,1,0.136364,3,0.730769,0.863636,0.791667,-0.014783,0.642045,0.865748,0.666667,0.67803,0.32197,0.333333,0.602564,0.666667,0.625,-0.014783,0.642045,0.741301,0.479167,0.666667,0,0,0,0,0,0,3871,19253,4247,100,100,?,?,?,?
haberman-weka.filters.unsupervised.attribute.Discretize-B10-M-1.0-Rfirst-last-precision6-weka.filters.unsupervised.attribute.NumericToNominal-Rfirst-last,8,8,weka.classifiers.bayes.NaiveBayes,'',5995231201785697655,20260418.0439,276,30,24,6,0,80,20,0,0.328358,0.309572,0.392762,79.197222,88.81668,25.099248,20.510199,4.589048,0.836642,0.683673,0.152968,5.543268,0.184776,22.085394,1,22,0.75,6,0.25,2,0,0,0.785714,1,0.88,0.443203,0.789773,0.914522,0.8,0.55,0.45,0.2,0.842857,0.8,0.752,0.443203,0.789773,0.849261,0.64,0.8,0,0,0,0,0,0,3871,19253,4247,100,98.333333,?,?,?,?
haberman-weka.filters.unsupervised.attribute.Discretize-B10-M-1.0-Rfirst-last-precision6-weka.filters.unsupervised.attribute.NumericToNominal-Rfirst-last,8,9,weka.classifiers.bayes.NaiveBayes,'',5995231201785697655,20260418.0439,276,30,25,5,0,83.333333,16.666667,0,0.516129,0.311422,0.353626,79.670548,79.966631,25.099248,17.850761,7.248487,0.836642,0.595025,0.241616,5.829555,0.194318,23.226013,0.954545,21,0.5,4,0.5,4,0.045455,1,0.84,0.954545,0.893617,0.53936,0.900568,0.959066,0.833333,0.378788,0.621212,0.166667,0.829333,0.833333,0.819422,0.53936,0.900568,0.924017,0.754501,0.833333,0,0,0,0.015625,0,15.625,3871,19253,4247,100,100,?,?,?,?
haberman-weka.filters.unsupervised.attribute.Discretize-B10-M-1.0-Rfirst-last-precision6-weka.filters.unsupervised.attribute.NumericToNominal-Rfirst-last,8,10,weka.classifiers.bayes.NaiveBayes,'',5995231201785697655,20260418.0439,276,30,24,6,0,80,20,0,0.328358,0.325362,0.410627,83.236852,92.856364,25.099248,22.427188,2.672059,0.836642,0.747573,0.089069,4.342337,0.144745,17.300665,1,22,0.75,6,0.25,2,0,0,0.785714,1,0.88,0.443203,0.647727,0.845698,0.8,0.55,0.45,0.2,0.842857,0.8,0.752,0.443203,0.647727,0.774831,0.64,0.8,0,0,0,0,0,0,3871,19253,4247,100,95,?,?,?,?
haberman-weka.filters.unsupervised.attribute.Discretize-B10-M-1.0-Rfirst-last-precision6-weka.filters.unsupervised.attribute.NumericToNominal-Rfirst-last,9,1,weka.classifiers.bayes.NaiveBayes,'',5995231201785697655,20260418.0439,275,31,23,8,0,74.193548,25.806452,0,0.266272,0.33987,0.417085,87.746902,95.298082,25.547654,24.424835,1.122819,0.824118,0.787898,0.03622,2.694945,0.086934,10.548697,0.869565,20,0.625,5,0.375,3,0.130435,3,0.8,0.869565,0.833333,0.270868,0.692935,0.836374,0.741935,0.49737,0.50263,0.258065,0.722581,0.741935,0.728879,0.270868,0.692935,0.747691,0.630952,0.741935,0,0,0,0,0,0,3871,19192,4308,96.774194,96.774194,?,?,?,?
haberman-weka.filters.unsupervised.attribute.Discretize-B10-M-1.0-Rfirst-last-precision6-weka.filters.unsupervised.attribute.NumericToNominal-Rfirst-last,9,2,weka.classifiers.bayes.NaiveBayes,'',5995231201785697655,20260418.0439,275,31,23,8,0,74.193548,25.806452,0,0.107914,0.34032,0.417487,87.863093,95.389831,25.547654,23.962071,1.585583,0.824118,0.77297,0.051148,2.516907,0.081191,9.851812,0.956522,22,0.875,7,0.125,1,0.043478,1,0.758621,0.956522,0.846154,0.145201,0.671196,0.843135,0.741935,0.660414,0.339586,0.258065,0.69188,0.741935,0.679404,0.145201,0.671196,0.755516,0.523077,0.741935,0,0.001,0,0,0,0,3871,19192,4308,100,98.387097,?,?,?,?
haberman-weka.filters.unsupervised.attribute.Discretize-B10-M-1.0-Rfirst-last-precision6-weka.filters.unsupervised.attribute.NumericToNominal-Rfirst-last,9,3,weka.classifiers.bayes.NaiveBayes,'',5995231201785697655,20260418.0439,275,31,26,5,0,83.870968,16.129032,0,0.47099,0.340644,0.415647,87.946702,94.969351,25.547654,24.067593,1.480061,0.824118,0.776374,0.047744,2.602973,0.083967,10.188695,1,23,0.625,5,0.375,3,0,0,0.821429,1,0.901961,0.55501,0.608696,0.799848,0.83871,0.46371,0.53629,0.16129,0.867512,0.83871,0.809959,0.55501,0.608696,0.737894,0.723708,0.83871,0,0,0,0,0,0,3871,19192,4308,100,100,?,?,?,?
haberman-weka.filters.unsupervised.attribute.Discretize-B10-M-1.0-Rfirst-last-precision6-weka.filters.unsupervised.attribute.NumericToNominal-Rfirst-last,9,4,weka.classifiers.bayes.NaiveBayes,'',5995231201785697655,20260418.0439,275,31,24,7,0,77.419355,22.580645,0,0.328173,0.3409,0.410204,88.012899,93.725777,25.547654,22.831182,2.716472,0.824118,0.73649,0.087628,2.397627,0.077343,9.384919,0.913043,21,0.625,5,0.375,3,0.086957,2,0.807692,0.913043,0.857143,0.342685,0.692935,0.871538,0.774194,0.48615,0.51385,0.225806,0.754094,0.774194,0.755051,0.342685,0.692935,0.784032,0.659341,0.774194,0,0,0,0,0,0,3871,19192,4308,100,100,?,?,?,?
haberman-weka.filters.unsupervised.attribute.Discretize-B10-M-1.0-Rfirst-last-precision6-weka.filters.unsupervised.attribute.NumericToNominal-Rfirst-last,9,5,weka.classifiers.bayes.NaiveBayes,'',5995231201785697655,20260418.0439,275,31,24,7,0,77.419355,22.580645,0,0.328173,0.349475,0.417006,90.22673,95.280057,25.547654,23.515295,2.032359,0.824118,0.758558,0.06556,1.898552,0.061244,7.431415,0.913043,21,0.625,5,0.375,3,0.086957,2,0.807692,0.913043,0.857143,0.342685,0.663043,0.850023,0.774194,0.48615,0.51385,0.225806,0.754094,0.774194,0.755051,0.342685,0.663043,0.763435,0.659341,0.774194,0,0,0,0,0,0,3871,19192,4308,100,98.387097,?,?,?,?
haberman-weka.filters.unsupervised.attribute.Discretize-B10-M-1.0-Rfirst-last-precision6-weka.filters.unsupervised.attribute.NumericToNominal-Rfirst-last,9,6,weka.classifiers.bayes.NaiveBayes,'',5995231201785697655,20260418.0439,275,31,23,8,0,74.193548,25.806452,0,0.220126,0.349169,0.436379,87.109573,95.970656,27.024229,26.122867,0.901362,0.871749,0.842673,0.029076,3.398682,0.109635,12.576424,0.954545,21,0.777778,7,0.222222,2,0.045455,1,0.75,0.954545,0.84,0.271391,0.555556,0.732224,0.741935,0.565168,0.434832,0.258065,0.725806,0.741935,0.692903,0.271391,0.555556,0.670152,0.586667,0.741935,0,0,0,0,0,0,3871,19192,4308,100,98.387097,?,?,?,?
haberman-weka.filters.unsupervised.attribute.Discretize-B10-M-1.0-Rfirst-last-precision6-weka.filters.unsupervised.attribute.NumericToNominal-Rfirst-last,9,7,weka.classifiers.bayes.NaiveBayes,'',5995231201785697655,20260418.0439,276,30,21,9,0,70,30,0,0.042553,0.372753,0.466162,95.360784,105.414704,25.099248,28.436115,-3.336867,0.836642,0.94787,-0.111229,-0.153007,-0.0051,-0.60961,0.909091,20,0.875,7,0.125,1,0.090909,2,0.740741,0.909091,0.816327,0.050252,0.585227,0.797041,0.7,0.665909,0.334091,0.3,0.632099,0.7,0.647124,0.050252,0.585227,0.681647,0.499072,0.7,0,0,0,0,0,0,3871,19253,4247,96.666667,96.666667,?,?,?,?
haberman-weka.filters.unsupervised.attribute.Discretize-B10-M-1.0-Rfirst-last-precision6-weka.filters.unsupervised.attribute.NumericToNominal-Rfirst-last,9,8,weka.classifiers.bayes.NaiveBayes,'',5995231201785697655,20260418.0439,276,30,21,9,0,70,30,0,-0.062992,0.32456,0.421898,83.031628,95.405181,25.099248,22.689639,2.409608,0.836642,0.756321,0.08032,3.688457,0.122949,14.695489,0.954545,21,1,8,0,0,0.045455,1,0.724138,0.954545,0.823529,-0.111979,0.806818,0.918413,0.7,0.745455,0.254545,0.3,0.531034,0.7,0.603922,-0.111979,0.806818,0.830223,0.411765,0.7,0,0,0,0,0,0,3871,19253,4247,100,98.333333,?,?,?,?
haberman-weka.filters.unsupervised.attribute.Discretize-B10-M-1.0-Rfirst-last-precision6-weka.filters.unsupervised.attribute.NumericToNominal-Rfirst-last,9,9,weka.classifiers.bayes.NaiveBayes,'',5995231201785697655,20260418.0439,276,30,23,7,0,76.666667,23.333333,0,0.173228,0.344717,0.446084,88.18831,100.874403,25.099248,25.595969,-0.496722,0.836642,0.853199,-0.016557,1.546253,0.051542,6.160556,1,22,0.875,7,0.125,1,0,0,0.758621,1,0.862745,0.307941,0.605114,0.84638,0.766667,0.641667,0.358333,0.233333,0.822989,0.766667,0.691939,0.307941,0.603598,0.730645,0.542484,0.766667,0,0,0,0,0,0,3871,19253,4247,100,98.333333,?,?,?,?
haberman-weka.filters.unsupervised.attribute.Discretize-B10-M-1.0-Rfirst-last-precision6-weka.filters.unsupervised.attribute.NumericToNominal-Rfirst-last,9,10,weka.classifiers.bayes.NaiveBayes,'',5995231201785697655,20260418.0439,276,30,25,5,0,83.333333,16.666667,0,0.468085,0.296921,0.367755,75.960724,83.161784,25.099248,18.406367,6.69288,0.836642,0.613546,0.223096,6.487218,0.216241,25.846264,1,22,0.625,5,0.375,3,0,0,0.814815,1,0.897959,0.552771,0.880682,0.954619,0.833333,0.458333,0.541667,0.166667,0.864198,0.833333,0.803958,0.552771,0.880682,0.903843,0.721707,0.833333,0,0,0,0,0,0,3871,19253,4247,100,100,?,?,?,?
haberman-weka.filters.unsupervised.attribute.Discretize-B10-M-1.0-Rfirst-last-precision6-weka.filters.unsupervised.attribute.NumericToNominal-Rfirst-last,10,1,weka.classifiers.bayes.NaiveBayes,'',5995231201785697655,20260418.0439,275,31,24,7,0,77.419355,22.580645,0,0.328173,0.337174,0.407109,87.051022,93.018691,25.547654,22.527355,3.0203,0.824118,0.726689,0.097429,2.286003,0.073742,8.947994,0.913043,21,0.625,5,0.375,3,0.086957,2,0.807692,0.913043,0.857143,0.342685,0.701087,0.875204,0.774194,0.48615,0.51385,0.225806,0.754094,0.774194,0.755051,0.342685,0.701087,0.807235,0.659341,0.774194,0,0,0,0,0,0,3871,19192,4308,100,98.387097,?,?,?,?
haberman-weka.filters.unsupervised.attribute.Discretize-B10-M-1.0-Rfirst-last-precision6-weka.filters.unsupervised.attribute.NumericToNominal-Rfirst-last,10,2,weka.classifiers.bayes.NaiveBayes,'',5995231201785697655,20260418.0439,275,31,23,8,0,74.193548,25.806452,0,0,0.358263,0.423373,92.495594,96.734774,25.547654,23.646193,1.901461,0.824118,0.76278,0.061337,0.677346,0.02185,2.651305,1,23,1,8,0,0,0,0,0.741935,1,0.851852,?,0.679348,0.883781,0.741935,0.741935,0.258065,0.258065,?,0.741935,?,?,0.679348,0.752262,?,0.741935,0,0,0,0,0,0,3871,19192,4308,100,100,?,?,?,?
haberman-weka.filters.unsupervised.attribute.Discretize-B10-M-1.0-Rfirst-last-precision6-weka.filters.unsupervised.attribute.NumericToNominal-Rfirst-last,10,3,weka.classifiers.bayes.NaiveBayes,'',5995231201785697655,20260418.0439,275,31,22,9,0,70.967742,29.032258,0,-0.060837,0.35375,0.454226,91.330418,103.784132,25.547654,27.677572,-2.129918,0.824118,0.892825,-0.068707,1.190012,0.038387,4.65801,0.956522,22,1,8,0,0,0.043478,1,0.733333,0.956522,0.830189,-0.107676,0.529891,0.774878,0.709677,0.753156,0.246844,0.290323,0.544086,0.709677,0.615946,-0.107676,0.529891,0.667439,0.415094,0.709677,0,0,0,0,0,0,3871,19192,4308,100,98.387097,?,?,?,?
haberman-weka.filters.unsupervised.attribute.Discretize-B10-M-1.0-Rfirst-last-precision6-weka.filters.unsupervised.attribute.NumericToNominal-Rfirst-last,10,4,weka.classifiers.bayes.NaiveBayes,'',5995231201785697655,20260418.0439,275,31,20,11,0,64.516129,35.483871,0,-0.055728,0.346849,0.433398,89.548707,99.025246,25.547654,24.311516,1.236139,0.824118,0.784242,0.039875,1.470692,0.047442,5.756662,0.826087,19,0.875,7,0.125,1,0.173913,4,0.730769,0.826087,0.77551,-0.058192,0.728261,0.903307,0.645161,0.694074,0.305926,0.354839,0.593797,0.645161,0.615081,-0.058192,0.728261,0.77809,0.464678,0.645161,0,0,0,0,0,0,3871,19192,4308,100,100,?,?,?,?
haberman-weka.filters.unsupervised.attribute.Discretize-B10-M-1.0-Rfirst-last-precision6-weka.filters.unsupervised.attribute.NumericToNominal-Rfirst-last,10,5,weka.classifiers.bayes.NaiveBayes,'',5995231201785697655,20260418.0439,275,31,22,9,0,70.967742,29.032258,0,0.136223,0.362076,0.448889,93.48006,102.564681,25.547654,28.395717,-2.848063,0.824118,0.915991,-0.091873,0.744433,0.024014,2.913901,0.869565,20,0.75,6,0.25,2,0.130435,3,0.769231,0.869565,0.816327,0.142247,0.524457,0.723341,0.709677,0.590112,0.409888,0.290323,0.673945,0.709677,0.685066,0.142247,0.524457,0.635122,0.562009,0.709677,0,0,0,0,0,0,3871,19192,4308,96.774194,98.387097,?,?,?,?
haberman-weka.filters.unsupervised.attribute.Discretize-B10-M-1.0-Rfirst-last-precision6-weka.filters.unsupervised.attribute.NumericToNominal-Rfirst-last,10,6,weka.classifiers.bayes.NaiveBayes,'',5995231201785697655,20260418.0439,275,31,23,8,0,74.193548,25.806452,0,0.27907,0.332071,0.420372,82.844028,92.450323,27.024229,24.400376,2.623853,0.871749,0.787109,0.08464,4.671894,0.150706,17.287799,0.909091,20,0.666667,6,0.333333,3,0.090909,2,0.769231,0.909091,0.833333,0.299183,0.709596,0.833719,0.741935,0.499511,0.500489,0.258065,0.720099,0.741935,0.715822,0.299183,0.709596,0.771449,0.630952,0.741935,0,0,0,0,0,0,3871,19192,4308,100,96.774194,?,?,?,?
haberman-weka.filters.unsupervised.attribute.Discretize-B10-M-1.0-Rfirst-last-precision6-weka.filters.unsupervised.attribute.NumericToNominal-Rfirst-last,10,7,weka.classifiers.bayes.NaiveBayes,'',5995231201785697655,20260418.0439,276,30,24,6,0,80,20,0,0.328358,0.320061,0.405239,81.880554,91.637964,25.099248,21.847087,3.252161,0.836642,0.728236,0.108405,4.267281,0.142243,17.001628,1,22,0.75,6,0.25,2,0,0,0.785714,1,0.88,0.443203,0.71875,0.883148,0.8,0.55,0.45,0.2,0.842857,0.8,0.752,0.443203,0.71875,0.812769,0.64,0.8,0,0,0,0,0,0,3871,19253,4247,100,100,?,?,?,?
haberman-weka.filters.unsupervised.attribute.Discretize-B10-M-1.0-Rfirst-last-precision6-weka.filters.unsupervised.attribute.NumericToNominal-Rfirst-last,10,8,weka.classifiers.bayes.NaiveBayes,'',5995231201785697655,20260418.0439,276,30,25,5,0,83.333333,16.666667,0,0.468085,0.30459,0.359569,77.922811,81.31052,25.099248,18.17733,6.921918,0.836642,0.605911,0.230731,6.852479,0.228416,27.301531,1,22,0.625,5,0.375,3,0,0,0.814815,1,0.897959,0.552771,0.849432,0.932481,0.833333,0.458333,0.541667,0.166667,0.864198,0.833333,0.803958,0.552771,0.849432,0.900465,0.721707,0.833333,0,0,0,0,0,0,3871,19253,4247,100,98.333333,?,?,?,?
haberman-weka.filters.unsupervised.attribute.Discretize-B10-M-1.0-Rfirst-last-precision6-weka.filters.unsupervised.attribute.NumericToNominal-Rfirst-last,10,9,weka.classifiers.bayes.NaiveBayes,'',5995231201785697655,20260418.0439,276,30,23,7,0,76.666667,23.333333,0,0.255319,0.338618,0.417115,86.628146,94.323618,25.099248,22.778664,2.320584,0.836642,0.759289,0.077353,2.688366,0.089612,10.710942,0.954545,21,0.75,6,0.25,2,0.045455,1,0.777778,0.954545,0.857143,0.301511,0.676136,0.868518,0.766667,0.562121,0.437879,0.233333,0.748148,0.766667,0.725541,0.301511,0.676136,0.780464,0.61039,0.766667,0,0,0,0,0,0,3871,19253,4247,100,100,?,?,?,?
haberman-weka.filters.unsupervised.attribute.Discretize-B10-M-1.0-Rfirst-last-precision6-weka.filters.unsupervised.attribute.NumericToNominal-Rfirst-last,10,10,weka.classifiers.bayes.NaiveBayes,'',5995231201785697655,20260418.0439,276,30,23,7,0,76.666667,23.333333,0,0.322581,0.363846,0.457964,93.081953,103.561022,25.099248,27.120801,-2.021554,0.836642,0.904027,-0.067385,0.90634,0.030211,3.611023,0.909091,20,0.625,5,0.375,3,0.090909,2,0.8,0.909091,0.851064,0.3371,0.619318,0.820123,0.766667,0.482576,0.517424,0.233333,0.746667,0.766667,0.74719,0.3371,0.619318,0.704379,0.656301,0.766667,0,0,0,0,0,0,3871,19253,4247,100,96.666667,?,?,?,?
haberman-weka.filters.unsupervised.attribute.Discretize-B10-M-1.0-Rfirst-last-precision6-weka.filters.unsupervised.attribute.NumericToNominal-Rfirst-last,1,1,weka.classifiers.lazy.IBk,'-K 1 -W 0 -A \"weka.core.neighboursearch.LinearNNSearch -A \\\"weka.core.EuclideanDistance -R first-last\\\"\"',-3080186098777067172,20260418.0439,275,31,21,10,0,67.741935,32.258065,0,-0.061644,0.356116,0.516891,88.842817,113.677086,27.024229,58.190946,-31.166717,0.871749,1.877127,-1.005378,0.694105,0.02239,2.568456,0.954545,21,1,9,0,0,0.045455,1,0.7,0.954545,0.807692,-0.116775,0.489899,0.748124,0.677419,0.722874,0.277126,0.322581,0.496774,0.677419,0.573201,-0.116775,0.489899,0.616474,0.403846,0.677419,0,0,0,0,0,0,20769,19192,4308,83.870968,72.580645,?,?,?,?
haberman-weka.filters.unsupervised.attribute.Discretize-B10-M-1.0-Rfirst-last-precision6-weka.filters.unsupervised.attribute.NumericToNominal-Rfirst-last,1,2,weka.classifiers.lazy.IBk,'-K 1 -W 0 -A \"weka.core.neighboursearch.LinearNNSearch -A \\\"weka.core.EuclideanDistance -R first-last\\\"\"',-3080186098777067172,20260418.0439,275,31,23,8,0,74.193548,25.806452,0,0.107914,0.344903,0.499879,89.046299,114.215252,25.547654,59.743431,-34.195777,0.824118,1.927207,-1.10309,0.629333,0.020301,2.463369,0.956522,22,0.875,7,0.125,1,0.043478,1,0.758621,0.956522,0.846154,0.145201,0.459239,0.724189,0.741935,0.660414,0.339586,0.258065,0.69188,0.741935,0.679404,0.145201,0.459239,0.63047,0.523077,0.741935,0,0.001,0,0,0,0,20769,19192,4308,83.870968,72.580645,?,?,?,?
haberman-weka.filters.unsupervised.attribute.Discretize-B10-M-1.0-Rfirst-last-precision6-weka.filters.unsupervised.attribute.NumericToNominal-Rfirst-last,1,3,weka.classifiers.lazy.IBk,'-K 1 -W 0 -A \"weka.core.neighboursearch.LinearNNSearch -A \\\"weka.core.EuclideanDistance -R first-last\\\"\"',-3080186098777067172,20260418.0439,275,31,24,7,0,77.419355,22.580645,0,0.259386,0.346239,0.452776,89.391198,103.452801,25.547654,35.537511,-9.989857,0.824118,1.146371,-0.322253,0.30549,0.009855,1.195764,0.956522,22,0.75,6,0.25,2,0.043478,1,0.785714,0.956522,0.862745,0.305657,0.595109,0.834336,0.774194,0.567672,0.432328,0.225806,0.754992,0.774194,0.733943,0.305657,0.595109,0.716327,0.613191,0.774194,0,0.001,0,0,0,0,20793,19192,4308,93.548387,82.258065,?,?,?,?
haberman-weka.filters.unsupervised.attribute.Discretize-B10-M-1.0-Rfirst-last-precision6-weka.filters.unsupervised.attribute.NumericToNominal-Rfirst-last,1,4,weka.classifiers.lazy.IBk,'-K 1 -W 0 -A \"weka.core.neighboursearch.LinearNNSearch -A \\\"weka.core.EuclideanDistance -R first-last\\\"\"',-3080186098777067172,20260418.0439,275,31,23,8,0,74.193548,25.806452,0,0.194805,0.305321,0.482749,78.827065,110.301327,25.547654,53.189501,-27.641847,0.824118,1.71579,-0.891672,3.875966,0.125031,15.171515,0.913043,21,0.75,6,0.25,2,0.086957,2,0.777778,0.913043,0.84,0.212814,0.619565,0.808949,0.741935,0.578892,0.421108,0.258065,0.706093,0.741935,0.709247,0.212814,0.619565,0.696239,0.586667,0.741935,0,0,0,0,0,0,20793,19192,4308,83.870968,69.354839,?,?,?,?
haberman-weka.filters.unsupervised.attribute.Discretize-B10-M-1.0-Rfirst-last-precision6-weka.filters.unsupervised.attribute.NumericToNominal-Rfirst-last,1,5,weka.classifiers.lazy.IBk,'-K 1 -W 0 -A \"weka.core.neighboursearch.LinearNNSearch -A \\\"weka.core.EuclideanDistance -R first-last\\\"\"',-3080186098777067172,20260418.0439,275,31,21,10,0,67.741935,32.258065,0,0.157609,0.380908,0.52069,98.34198,118.970202,25.547654,56.426335,-30.878681,0.824118,1.820204,-0.996086,-2.606378,-0.084077,-10.202025,0.782609,18,0.625,5,0.375,3,0.217391,5,0.782609,0.782609,0.782609,0.157609,0.608696,0.805352,0.677419,0.519811,0.480189,0.322581,0.677419,0.677419,0.677419,0.157609,0.608696,0.725648,0.578804,0.677419,0,0,0,0,0,0,20793,19192,4308,83.870968,75.806452,?,?,?,?
haberman-weka.filters.unsupervised.attribute.Discretize-B10-M-1.0-Rfirst-last-precision6-weka.filters.unsupervised.attribute.NumericToNominal-Rfirst-last,1,6,weka.classifiers.lazy.IBk,'-K 1 -W 0 -A \"weka.core.neighboursearch.LinearNNSearch -A \\\"weka.core.EuclideanDistance -R first-last\\\"\"',-3080186098777067172,20260418.0439,275,31,22,9,0,70.967742,29.032258,0,0.047782,0.393081,0.543319,101.484835,124.140773,25.547654,69.05467,-43.507016,0.824118,2.22757,-1.403452,-2.960993,-0.095516,-11.590076,0.913043,21,0.875,7,0.125,1,0.086957,2,0.75,0.913043,0.823529,0.056305,0.434783,0.709373,0.709677,0.671634,0.328366,0.290323,0.642473,0.709677,0.657927,0.056305,0.434783,0.593721,0.502674,0.709677,0,0,0,0,0,0,20977,19192,4308,80.645161,74.193548,?,?,?,?
haberman-weka.filters.unsupervised.attribute.Discretize-B10-M-1.0-Rfirst-last-precision6-weka.filters.unsupervised.attribute.NumericToNominal-Rfirst-last,1,7,weka.classifiers.lazy.IBk,'-K 1 -W 0 -A \"weka.core.neighboursearch.LinearNNSearch -A \\\"weka.core.EuclideanDistance -R first-last\\\"\"',-3080186098777067172,20260418.0439,276,30,20,10,0,66.666667,33.333333,0,-0.119403,0.380547,0.495587,97.35473,112.068768,25.099248,42.290144,-17.190897,0.836642,1.409671,-0.57303,-1.728678,-0.057623,-6.887371,0.909091,20,1,8,0,0,0.090909,2,0.714286,0.909091,0.8,-0.161165,0.616477,0.854039,0.666667,0.757576,0.242424,0.333333,0.52381,0.666667,0.586667,-0.161165,0.616477,0.713554,0.4,0.666667,0,0,0,0,0,0,20854,19253,4247,90,81.666667,?,?,?,?
haberman-weka.filters.unsupervised.attribute.Discretize-B10-M-1.0-Rfirst-last-precision6-weka.filters.unsupervised.attribute.NumericToNominal-Rfirst-last,1,8,weka.classifiers.lazy.IBk,'-K 1 -W 0 -A \"weka.core.neighboursearch.LinearNNSearch -A \\\"weka.core.EuclideanDistance -R first-last\\\"\"',-3080186098777067172,20260418.0439,276,30,22,8,0,73.333333,26.666667,0,0.189189,0.343497,0.48004,87.876322,108.553111,25.099248,41.00567,-15.906423,0.836642,1.366856,-0.530214,0.085138,0.002838,0.339205,0.909091,20,0.75,6,0.25,2,0.090909,2,0.769231,0.909091,0.833333,0.206959,0.642045,0.85699,0.733333,0.574242,0.425758,0.266667,0.697436,0.733333,0.7,0.206959,0.642045,0.735591,0.583333,0.733333,0,0.001,0,0,0,0,20862,19253,4247,90,75,?,?,?,?
haberman-weka.filters.unsupervised.attribute.Discretize-B10-M-1.0-Rfirst-last-precision6-weka.filters.unsupervised.attribute.NumericToNominal-Rfirst-last,1,9,weka.classifiers.lazy.IBk,'-K 1 -W 0 -A \"weka.core.neighboursearch.LinearNNSearch -A \\\"weka.core.EuclideanDistance -R first-last\\\"\"',-3080186098777067172,20260418.0439,276,30,19,11,0,63.333333,36.666667,0,-0.064516,0.379825,0.503183,97.170009,113.786358,25.099248,47.558684,-22.459437,0.836642,1.585289,-0.748648,-1.614848,-0.053828,-6.433851,0.818182,18,0.875,7,0.125,1,0.181818,4,0.72,0.818182,0.765957,-0.06742,0.573864,0.795758,0.633333,0.690152,0.309848,0.366667,0.581333,0.633333,0.602728,-0.06742,0.573864,0.69333,0.459902,0.633333,0,0.001,0,0,0,0,20838,19253,4247,86.666667,80,?,?,?,?
haberman-weka.filters.unsupervised.attribute.Discretize-B10-M-1.0-Rfirst-last-precision6-weka.filters.unsupervised.attribute.NumericToNominal-Rfirst-last,1,10,weka.classifiers.lazy.IBk,'-K 1 -W 0 -A \"weka.core.neighboursearch.LinearNNSearch -A \\\"weka.core.EuclideanDistance -R first-last\\\"\"',-3080186098777067172,20260418.0439,276,30,19,11,0,63.333333,36.666667,0,-0.170213,0.380546,0.528164,97.354426,119.435502,25.099248,61.195229,-36.095981,0.836642,2.039841,-1.203199,-2.052285,-0.068409,-8.176678,0.863636,19,1,8,0,0,0.136364,3,0.703704,0.863636,0.77551,-0.201008,0.465909,0.712714,0.633333,0.769697,0.230303,0.366667,0.516049,0.633333,0.568707,-0.201008,0.465909,0.595231,0.387755,0.633333,0,0,0,0,0,0,20830,19253,4247,83.333333,73.333333,?,?,?,?
haberman-weka.filters.unsupervised.attribute.Discretize-B10-M-1.0-Rfirst-last-precision6-weka.filters.unsupervised.attribute.NumericToNominal-Rfirst-last,2,1,weka.classifiers.lazy.IBk,'-K 1 -W 0 -A \"weka.core.neighboursearch.LinearNNSearch -A \\\"weka.core.EuclideanDistance -R first-last\\\"\"',-3080186098777067172,20260418.0439,275,31,20,11,0,64.516129,35.483871,0,-0.163823,0.385327,0.522607,99.482913,119.408265,25.547654,53.99467,-28.447016,0.824118,1.741764,-0.917646,-3.166442,-0.102143,-12.394259,0.869565,20,1,8,0,0,0.130435,3,0.714286,0.869565,0.784314,-0.193047,0.497283,0.77786,0.645161,0.775596,0.224404,0.354839,0.529954,0.645161,0.58191,-0.193047,0.497283,0.645172,0.392157,0.645161,0,0,0,0,0,0,20761,19192,4308,87.096774,77.419355,?,?,?,?
haberman-weka.filters.unsupervised.attribute.Discretize-B10-M-1.0-Rfirst-last-precision6-weka.filters.unsupervised.attribute.NumericToNominal-Rfirst-last,2,2,weka.classifiers.lazy.IBk,'-K 1 -W 0 -A \"weka.core.neighboursearch.LinearNNSearch -A \\\"weka.core.EuclideanDistance -R first-last\\\"\"',-3080186098777067172,20260418.0439,275,31,20,11,0,64.516129,35.483871,0,-0.163823,0.40698,0.535331,105.073259,122.31551,25.547654,51.699431,-26.151777,0.824118,1.667724,-0.843606,-4.714877,-0.152093,-18.455226,0.869565,20,1,8,0,0,0.130435,3,0.714286,0.869565,0.784314,-0.193047,0.548913,0.83458,0.645161,0.775596,0.224404,0.354839,0.529954,0.645161,0.58191,-0.193047,0.548913,0.693645,0.392157,0.645161,0,0,0,0,0,0,20785,19192,4308,87.096774,77.419355,?,?,?,?
haberman-weka.filters.unsupervised.attribute.Discretize-B10-M-1.0-Rfirst-last-precision6-weka.filters.unsupervised.attribute.NumericToNominal-Rfirst-last,2,3,weka.classifiers.lazy.IBk,'-K 1 -W 0 -A \"weka.core.neighboursearch.LinearNNSearch -A \\\"weka.core.EuclideanDistance -R first-last\\\"\"',-3080186098777067172,20260418.0439,275,31,23,8,0,74.193548,25.806452,0,0,0.336496,0.475689,86.875817,108.68811,25.547654,47.953166,-22.405512,0.824118,1.546876,-0.722758,1.34247,0.043305,5.254769,1,23,1,8,0,0,0,0,0.741935,1,0.851852,?,0.5625,0.808385,0.741935,0.741935,0.258065,0.258065,?,0.741935,?,?,0.5625,0.680817,?,0.741935,0,0,0,0,0,0,20913,19192,4308,87.096774,77.419355,?,?,?,?
haberman-weka.filters.unsupervised.attribute.Discretize-B10-M-1.0-Rfirst-last-precision6-weka.filters.unsupervised.attribute.NumericToNominal-Rfirst-last,2,4,weka.classifiers.lazy.IBk,'-K 1 -W 0 -A \"weka.core.neighboursearch.LinearNNSearch -A \\\"weka.core.EuclideanDistance -R first-last\\\"\"',-3080186098777067172,20260418.0439,275,31,24,7,0,77.419355,22.580645,0,0.328173,0.312756,0.475256,80.746657,108.589277,25.547654,56.293683,-30.746029,0.824118,1.815925,-0.991807,3.862907,0.12461,15.120396,0.913043,21,0.625,5,0.375,3,0.086957,2,0.807692,0.913043,0.857143,0.342685,0.576087,0.777373,0.774194,0.48615,0.51385,0.225806,0.754094,0.774194,0.755051,0.342685,0.576087,0.674333,0.659341,0.774194,0,0.001,0,0,0,0,20777,19192,4308,83.870968,72.580645,?,?,?,?
haberman-weka.filters.unsupervised.attribute.Discretize-B10-M-1.0-Rfirst-last-precision6-weka.filters.unsupervised.attribute.NumericToNominal-Rfirst-last,2,5,weka.classifiers.lazy.IBk,'-K 1 -W 0 -A \"weka.core.neighboursearch.LinearNNSearch -A \\\"weka.core.EuclideanDistance -R first-last\\\"\"',-3080186098777067172,20260418.0439,275,31,21,10,0,67.741935,32.258065,0,-0.006494,0.419309,0.572279,108.256383,130.757558,25.547654,78.306856,-52.759202,0.824118,2.526028,-1.70191,-4.740331,-0.152914,-18.554859,0.869565,20,0.875,7,0.125,1,0.130435,3,0.740741,0.869565,0.8,-0.007094,0.377717,0.712055,0.677419,0.682854,0.317146,0.322581,0.614098,0.677419,0.636559,-0.007094,0.377717,0.588355,0.483333,0.677419,0,0.001,0,0,0,0,20785,19192,4308,77.419355,74.193548,?,?,?,?
haberman-weka.filters.unsupervised.attribute.Discretize-B10-M-1.0-Rfirst-last-precision6-weka.filters.unsupervised.attribute.NumericToNominal-Rfirst-last,2,6,weka.classifiers.lazy.IBk,'-K 1 -W 0 -A \"weka.core.neighboursearch.LinearNNSearch -A \\\"weka.core.EuclideanDistance -R first-last\\\"\"',-3080186098777067172,20260418.0439,275,31,21,10,0,67.741935,32.258065,0,-0.061644,0.419798,0.553783,104.729883,121.790569,27.024229,68.801106,-41.776878,0.871749,2.219391,-1.347641,-4.442235,-0.143298,-16.437971,0.954545,21,1,9,0,0,0.045455,1,0.7,0.954545,0.807692,-0.116775,0.454545,0.721563,0.677419,0.722874,0.277126,0.322581,0.496774,0.677419,0.573201,-0.116775,0.454545,0.593038,0.403846,0.677419,0,0,0,0,0,0,20777,19192,4308,80.645161,75.806452,?,?,?,?
haberman-weka.filters.unsupervised.attribute.Discretize-B10-M-1.0-Rfirst-last-precision6-weka.filters.unsupervised.attribute.NumericToNominal-Rfirst-last,2,7,weka.classifiers.lazy.IBk,'-K 1 -W 0 -A \"weka.core.neighboursearch.LinearNNSearch -A \\\"weka.core.EuclideanDistance -R first-last\\\"\"',-3080186098777067172,20260418.0439,276,30,22,8,0,73.333333,26.666667,0,0.259259,0.371274,0.495521,94.982365,112.053909,25.099248,43.839121,-18.739874,0.836642,1.461304,-0.624662,-1.847828,-0.061594,-7.362086,0.863636,19,0.625,5,0.375,3,0.136364,3,0.791667,0.863636,0.826087,0.263822,0.576705,0.781344,0.733333,0.494697,0.505303,0.266667,0.713889,0.733333,0.720083,0.263822,0.576705,0.692274,0.627329,0.733333,0,0,0,0,0,0,20878,19253,4247,90,80,?,?,?,?
haberman-weka.filters.unsupervised.attribute.Discretize-B10-M-1.0-Rfirst-last-precision6-weka.filters.unsupervised.attribute.NumericToNominal-Rfirst-last,2,8,weka.classifiers.lazy.IBk,'-K 1 -W 0 -A \"weka.core.neighboursearch.LinearNNSearch -A \\\"weka.core.EuclideanDistance -R first-last\\\"\"',-3080186098777067172,20260418.0439,276,30,21,9,0,70,30,0,0.042553,0.287693,0.430536,73.599894,97.358664,25.099248,33.323379,-8.224132,0.836642,1.110779,-0.274138,5.568731,0.185624,22.186846,0.909091,20,0.875,7,0.125,1,0.090909,2,0.740741,0.909091,0.816327,0.050252,0.752841,0.857605,0.7,0.665909,0.334091,0.3,0.632099,0.7,0.647124,0.050252,0.752841,0.767614,0.499072,0.7,0,0,0,0,0,0,20902,19253,4247,93.333333,78.333333,?,?,?,?
haberman-weka.filters.unsupervised.attribute.Discretize-B10-M-1.0-Rfirst-last-precision6-weka.filters.unsupervised.attribute.NumericToNominal-Rfirst-last,2,9,weka.classifiers.lazy.IBk,'-K 1 -W 0 -A \"weka.core.neighboursearch.LinearNNSearch -A \\\"weka.core.EuclideanDistance -R first-last\\\"\"',-3080186098777067172,20260418.0439,276,30,23,7,0,76.666667,23.333333,0,0.255319,0.299801,0.453427,76.697663,102.534982,25.099248,37.658577,-12.559329,0.836642,1.255286,-0.418644,3.805627,0.126854,15.162315,0.954545,21,0.75,6,0.25,2,0.045455,1,0.777778,0.954545,0.857143,0.301511,0.715909,0.877039,0.766667,0.562121,0.437879,0.233333,0.748148,0.766667,0.725541,0.301511,0.715909,0.780181,0.61039,0.766667,0,0,0,0,0,0,20870,19253,4247,90,71.666667,?,?,?,?
haberman-weka.filters.unsupervised.attribute.Discretize-B10-M-1.0-Rfirst-last-precision6-weka.filters.unsupervised.attribute.NumericToNominal-Rfirst-last,2,10,weka.classifiers.lazy.IBk,'-K 1 -W 0 -A \"weka.core.neighboursearch.LinearNNSearch -A \\\"weka.core.EuclideanDistance -R first-last\\\"\"',-3080186098777067172,20260418.0439,276,30,22,8,0,73.333333,26.666667,0,0.104478,0.406511,0.524365,103.997023,118.576409,25.099248,51.079686,-25.980438,0.836642,1.702656,-0.866015,-4.168341,-0.138945,-16.607436,0.954545,21,0.875,7,0.125,1,0.045455,1,0.75,0.954545,0.84,0.141019,0.477273,0.748558,0.733333,0.653788,0.346212,0.266667,0.683333,0.733333,0.669333,0.141019,0.477273,0.625423,0.52,0.733333,0,0,0,0.015625,0,15.625,20838,19253,4247,86.666667,81.666667,?,?,?,?
haberman-weka.filters.unsupervised.attribute.Discretize-B10-M-1.0-Rfirst-last-precision6-weka.filters.unsupervised.attribute.NumericToNominal-Rfirst-last,3,1,weka.classifiers.lazy.IBk,'-K 1 -W 0 -A \"weka.core.neighboursearch.LinearNNSearch -A \\\"weka.core.EuclideanDistance -R first-last\\\"\"',-3080186098777067172,20260418.0439,275,31,21,10,0,67.741935,32.258065,0,-0.115108,0.417495,0.556248,107.788039,127.0948,25.547654,73.065726,-47.518072,0.824118,2.356959,-1.532841,-4.368041,-0.140905,-17.097622,0.913043,21,1,8,0,0,0.086957,2,0.724138,0.913043,0.807692,-0.154881,0.366848,0.688956,0.677419,0.764376,0.235624,0.322581,0.537264,0.677419,0.599256,-0.154881,0.366848,0.571251,0.403846,0.677419,0.001,0,0,0,0,0,20769,19192,4308,77.419355,75.806452,?,?,?,?
haberman-weka.filters.unsupervised.attribute.Discretize-B10-M-1.0-Rfirst-last-precision6-weka.filters.unsupervised.attribute.NumericToNominal-Rfirst-last,3,2,weka.classifiers.lazy.IBk,'-K 1 -W 0 -A \"weka.core.neighboursearch.LinearNNSearch -A \\\"weka.core.EuclideanDistance -R first-last\\\"\"',-3080186098777067172,20260418.0439,275,31,21,10,0,67.741935,32.258065,0,-0.115108,0.297301,0.471762,76.756454,107.790868,25.547654,49.191998,-23.644344,0.824118,1.586839,-0.762721,3.987365,0.128625,15.607559,0.913043,21,1,8,0,0,0.086957,2,0.724138,0.913043,0.807692,-0.154881,0.578804,0.771417,0.677419,0.764376,0.235624,0.322581,0.537264,0.677419,0.599256,-0.154881,0.578804,0.663986,0.403846,0.677419,0,0,0,0,0,0,20801,19192,4308,87.096774,69.354839,?,?,?,?
haberman-weka.filters.unsupervised.attribute.Discretize-B10-M-1.0-Rfirst-last-precision6-weka.filters.unsupervised.attribute.NumericToNominal-Rfirst-last,3,3,weka.classifiers.lazy.IBk,'-K 1 -W 0 -A \"weka.core.neighboursearch.LinearNNSearch -A \\\"weka.core.EuclideanDistance -R first-last\\\"\"',-3080186098777067172,20260418.0439,275,31,22,9,0,70.967742,29.032258,0,0.047782,0.357505,0.503781,92.299974,115.106723,25.547654,52.631847,-27.084193,0.824118,1.697802,-0.873684,-0.585953,-0.018902,-2.293569,0.913043,21,0.875,7,0.125,1,0.086957,2,0.75,0.913043,0.823529,0.056305,0.554348,0.787992,0.709677,0.671634,0.328366,0.290323,0.642473,0.709677,0.657927,0.056305,0.554348,0.663311,0.502674,0.709677,0,0,0,0,0,0,20801,19192,4308,87.096774,75.806452,?,?,?,?
haberman-weka.filters.unsupervised.attribute.Discretize-B10-M-1.0-Rfirst-last-precision6-weka.filters.unsupervised.attribute.NumericToNominal-Rfirst-last,3,4,weka.classifiers.lazy.IBk,'-K 1 -W 0 -A \"weka.core.neighboursearch.LinearNNSearch -A \\\"weka.core.EuclideanDistance -R first-last\\\"\"',-3080186098777067172,20260418.0439,275,31,24,7,0,77.419355,22.580645,0,0.259386,0.302957,0.473239,78.2169,108.128289,25.547654,46.449963,-20.902309,0.824118,1.498386,-0.674268,3.042063,0.098131,11.907407,0.956522,22,0.75,6,0.25,2,0.043478,1,0.785714,0.956522,0.862745,0.305657,0.663043,0.839164,0.774194,0.567672,0.432328,0.225806,0.754992,0.774194,0.733943,0.305657,0.663043,0.744115,0.613191,0.774194,0,0.001,0,0,0,0,20761,19192,4308,87.096774,69.354839,?,?,?,?
haberman-weka.filters.unsupervised.attribute.Discretize-B10-M-1.0-Rfirst-last-precision6-weka.filters.unsupervised.attribute.NumericToNominal-Rfirst-last,3,5,weka.classifiers.lazy.IBk,'-K 1 -W 0 -A \"weka.core.neighboursearch.LinearNNSearch -A \\\"weka.core.EuclideanDistance -R first-last\\\"\"',-3080186098777067172,20260418.0439,275,31,22,9,0,70.967742,29.032258,0,0.047782,0.311541,0.455903,80.432995,104.167305,25.547654,43.991529,-18.443875,0.824118,1.419082,-0.594964,3.066181,0.098909,12.001811,0.913043,21,0.875,7,0.125,1,0.086957,2,0.75,0.913043,0.823529,0.056305,0.608696,0.783833,0.709677,0.671634,0.328366,0.290323,0.642473,0.709677,0.657927,0.056305,0.608696,0.683944,0.502674,0.709677,0.001,0,0,0,0,0,20777,19192,4308,90.322581,74.193548,?,?,?,?
haberman-weka.filters.unsupervised.attribute.Discretize-B10-M-1.0-Rfirst-last-precision6-weka.filters.unsupervised.attribute.NumericToNominal-Rfirst-last,3,6,weka.classifiers.lazy.IBk,'-K 1 -W 0 -A \"weka.core.neighboursearch.LinearNNSearch -A \\\"weka.core.EuclideanDistance -R first-last\\\"\"',-3080186098777067172,20260418.0439,275,31,24,7,0,77.419355,22.580645,0,0.288525,0.345268,0.463885,86.136508,102.019939,27.024229,37.224179,-10.199951,0.871749,1.20078,-0.329031,1.144757,0.036928,4.236039,1,22,0.777778,7,0.222222,2,0,0,0.758621,1,0.862745,0.410588,0.568182,0.787992,0.774194,0.551971,0.448029,0.225806,0.828699,0.774194,0.717843,0.410588,0.568182,0.694695,0.613191,0.774194,0,0.001,0,0,0,0,20801,19192,4308,93.548387,82.258065,?,?,?,?
haberman-weka.filters.unsupervised.attribute.Discretize-B10-M-1.0-Rfirst-last-precision6-weka.filters.unsupervised.attribute.NumericToNominal-Rfirst-last,3,7,weka.classifiers.lazy.IBk,'-K 1 -W 0 -A \"weka.core.neighboursearch.LinearNNSearch -A \\\"weka.core.EuclideanDistance -R first-last\\\"\"',-3080186098777067172,20260418.0439,276,30,19,11,0,63.333333,36.666667,0,-0.064516,0.429769,0.584854,109.946913,132.254948,25.099248,72.981694,-47.882446,0.836642,2.432723,-1.596082,-5.302282,-0.176743,-21.125264,0.818182,18,0.875,7,0.125,1,0.181818,4,0.72,0.818182,0.765957,-0.06742,0.494318,0.786286,0.633333,0.690152,0.309848,0.366667,0.581333,0.633333,0.602728,-0.06742,0.494318,0.648052,0.459902,0.633333,0,0.001,0,0,0,0,20838,19253,4247,76.666667,73.333333,?,?,?,?
haberman-weka.filters.unsupervised.attribute.Discretize-B10-M-1.0-Rfirst-last-precision6-weka.filters.unsupervised.attribute.NumericToNominal-Rfirst-last,3,8,weka.classifiers.lazy.IBk,'-K 1 -W 0 -A \"weka.core.neighboursearch.LinearNNSearch -A \\\"weka.core.EuclideanDistance -R first-last\\\"\"',-3080186098777067172,20260418.0439,276,30,22,8,0,73.333333,26.666667,0,0.104478,0.343204,0.443523,87.801153,100.295454,25.099248,23.889254,1.209993,0.836642,0.796308,0.040333,0.629816,0.020994,2.509304,0.954545,21,0.875,7,0.125,1,0.045455,1,0.75,0.954545,0.84,0.141019,0.588068,0.830703,0.733333,0.653788,0.346212,0.266667,0.683333,0.733333,0.669333,0.141019,0.588068,0.719193,0.52,0.733333,0,0,0,0,0,0,20838,19253,4247,100,86.666667,?,?,?,?
haberman-weka.filters.unsupervised.attribute.Discretize-B10-M-1.0-Rfirst-last-precision6-weka.filters.unsupervised.attribute.NumericToNominal-Rfirst-last,3,9,weka.classifiers.lazy.IBk,'-K 1 -W 0 -A \"weka.core.neighboursearch.LinearNNSearch -A \\\"weka.core.EuclideanDistance -R first-last\\\"\"',-3080186098777067172,20260418.0439,276,30,21,9,0,70,30,0,0.042553,0.418886,0.525759,107.162733,118.89169,25.099248,47.526666,-22.427418,0.836642,1.584222,-0.747581,-4.646719,-0.154891,-18.51338,0.909091,20,0.875,7,0.125,1,0.090909,2,0.740741,0.909091,0.816327,0.050252,0.457386,0.760954,0.7,0.665909,0.334091,0.3,0.632099,0.7,0.647124,0.050252,0.457386,0.629229,0.499072,0.7,0,0,0,0,0,0,20934,19253,4247,90,86.666667,?,?,?,?
haberman-weka.filters.unsupervised.attribute.Discretize-B10-M-1.0-Rfirst-last-precision6-weka.filters.unsupervised.attribute.NumericToNominal-Rfirst-last,3,10,weka.classifiers.lazy.IBk,'-K 1 -W 0 -A \"weka.core.neighboursearch.LinearNNSearch -A \\\"weka.core.EuclideanDistance -R first-last\\\"\"',-3080186098777067172,20260418.0439,276,30,20,10,0,66.666667,33.333333,0,0.147727,0.328554,0.490549,84.053346,110.929534,25.099248,45.642657,-20.54341,0.836642,1.521422,-0.68478,2.195233,0.073174,8.746209,0.772727,17,0.625,5,0.375,3,0.227273,5,0.772727,0.772727,0.772727,0.147727,0.755682,0.91451,0.666667,0.518939,0.481061,0.333333,0.666667,0.666667,0.666667,0.147727,0.755682,0.806679,0.573864,0.666667,0,0,0,0,0,0,20862,19253,4247,86.666667,70,?,?,?,?
haberman-weka.filters.unsupervised.attribute.Discretize-B10-M-1.0-Rfirst-last-precision6-weka.filters.unsupervised.attribute.NumericToNominal-Rfirst-last,4,1,weka.classifiers.lazy.IBk,'-K 1 -W 0 -A \"weka.core.neighboursearch.LinearNNSearch -A \\\"weka.core.EuclideanDistance -R first-last\\\"\"',-3080186098777067172,20260418.0439,275,31,19,12,0,61.290323,38.709677,0,-0.207792,0.412154,0.528709,106.409021,120.802575,25.547654,50.066228,-24.518574,0.824118,1.61504,-0.790922,-5.827757,-0.187992,-22.811319,0.826087,19,1,8,0,0,0.173913,4,0.703704,0.826087,0.76,-0.227002,0.394022,0.72556,0.612903,0.786816,0.213184,0.387097,0.522103,0.612903,0.563871,-0.227002,0.394022,0.598577,0.38,0.612903,0,0.001,0,0,0,0,20769,19192,4308,90.322581,80.645161,?,?,?,?
haberman-weka.filters.unsupervised.attribute.Discretize-B10-M-1.0-Rfirst-last-precision6-weka.filters.unsupervised.attribute.NumericToNominal-Rfirst-last,4,2,weka.classifiers.lazy.IBk,'-K 1 -W 0 -A \"weka.core.neighboursearch.LinearNNSearch -A \\\"weka.core.EuclideanDistance -R first-last\\\"\"',-3080186098777067172,20260418.0439,275,31,23,8,0,74.193548,25.806452,0,0.194805,0.296286,0.43707,76.494568,99.864226,25.547654,32.208586,-6.660932,0.824118,1.038987,-0.214869,4.125697,0.133087,16.149023,0.913043,21,0.75,6,0.25,2,0.086957,2,0.777778,0.913043,0.84,0.212814,0.777174,0.921838,0.741935,0.578892,0.421108,0.258065,0.706093,0.741935,0.709247,0.212814,0.777174,0.826443,0.586667,0.741935,0,0.001,0,0,0,0,20801,19192,4308,93.548387,74.193548,?,?,?,?
haberman-weka.filters.unsupervised.attribute.Discretize-B10-M-1.0-Rfirst-last-precision6-weka.filters.unsupervised.attribute.NumericToNominal-Rfirst-last,4,3,weka.classifiers.lazy.IBk,'-K 1 -W 0 -A \"weka.core.neighboursearch.LinearNNSearch -A \\\"weka.core.EuclideanDistance -R first-last\\\"\"',-3080186098777067172,20260418.0439,275,31,22,9,0,70.967742,29.032258,0,0.136223,0.420662,0.549668,108.605603,125.59125,25.547654,68.687367,-43.139713,0.824118,2.215722,-1.391604,-5.40075,-0.174218,-21.139906,0.869565,20,0.75,6,0.25,2,0.130435,3,0.769231,0.869565,0.816327,0.142247,0.461957,0.752094,0.709677,0.590112,0.409888,0.290323,0.673945,0.709677,0.685066,0.142247,0.461957,0.629463,0.562009,0.709677,0,0.001,0,0,0,0,20761,19192,4308,80.645161,77.419355,?,?,?,?
haberman-weka.filters.unsupervised.attribute.Discretize-B10-M-1.0-Rfirst-last-precision6-weka.filters.unsupervised.attribute.NumericToNominal-Rfirst-last,4,4,weka.classifiers.lazy.IBk,'-K 1 -W 0 -A \"weka.core.neighboursearch.LinearNNSearch -A \\\"weka.core.EuclideanDistance -R first-last\\\"\"',-3080186098777067172,20260418.0439,275,31,22,9,0,70.967742,29.032258,0,0.047782,0.395441,0.544241,102.094254,124.351413,25.547654,65.524044,-39.97639,0.824118,2.113679,-1.289561,-3.864573,-0.124664,-15.126919,0.913043,21,0.875,7,0.125,1,0.086957,2,0.75,0.913043,0.823529,0.056305,0.456522,0.770121,0.709677,0.671634,0.328366,0.290323,0.642473,0.709677,0.657927,0.056305,0.456522,0.638662,0.502674,0.709677,0,0,0,0,0,0,20769,19192,4308,80.645161,72.580645,?,?,?,?
haberman-weka.filters.unsupervised.attribute.Discretize-B10-M-1.0-Rfirst-last-precision6-weka.filters.unsupervised.attribute.NumericToNominal-Rfirst-last,4,5,weka.classifiers.lazy.IBk,'-K 1 -W 0 -A \"weka.core.neighboursearch.LinearNNSearch -A \\\"weka.core.EuclideanDistance -R first-last\\\"\"',-3080186098777067172,20260418.0439,275,31,21,10,0,67.741935,32.258065,0,-0.006494,0.376879,0.4864,97.301947,111.135432,25.547654,44.139661,-18.592007,0.824118,1.42386,-0.599742,-1.442162,-0.046521,-5.644987,0.869565,20,0.875,7,0.125,1,0.130435,3,0.740741,0.869565,0.8,-0.007094,0.652174,0.810428,0.677419,0.682854,0.317146,0.322581,0.614098,0.677419,0.636559,-0.007094,0.652174,0.719961,0.483333,0.677419,0,0,0,0,0,0,20769,19192,4308,90.322581,83.870968,?,?,?,?
haberman-weka.filters.unsupervised.attribute.Discretize-B10-M-1.0-Rfirst-last-precision6-weka.filters.unsupervised.attribute.NumericToNominal-Rfirst-last,4,6,weka.classifiers.lazy.IBk,'-K 1 -W 0 -A \"weka.core.neighboursearch.LinearNNSearch -A \\\"weka.core.EuclideanDistance -R first-last\\\"\"',-3080186098777067172,20260418.0439,275,31,22,9,0,70.967742,29.032258,0,0.085246,0.408493,0.527838,101.909616,116.084612,27.024229,52.896464,-25.872235,0.871749,1.706338,-0.834588,-3.754272,-0.121106,-13.892246,0.954545,21,0.888889,8,0.111111,1,0.045455,1,0.724138,0.954545,0.823529,0.12131,0.467172,0.753664,0.709677,0.644021,0.355979,0.290323,0.659066,0.709677,0.637226,0.12131,0.467172,0.640252,0.502674,0.709677,0,0,0,0,0,0,20777,19192,4308,87.096774,80.645161,?,?,?,?
haberman-weka.filters.unsupervised.attribute.Discretize-B10-M-1.0-Rfirst-last-precision6-weka.filters.unsupervised.attribute.NumericToNominal-Rfirst-last,4,7,weka.classifiers.lazy.IBk,'-K 1 -W 0 -A \"weka.core.neighboursearch.LinearNNSearch -A \\\"weka.core.EuclideanDistance -R first-last\\\"\"',-3080186098777067172,20260418.0439,276,30,22,8,0,73.333333,26.666667,0,0,0.257056,0.434285,65.762281,98.206406,25.099248,33.060057,-7.96081,0.836642,1.102002,-0.26536,6.905358,0.230179,27.51221,1,22,1,8,0,0,0,0,0.733333,1,0.846154,?,0.795455,0.878152,0.733333,0.733333,0.266667,0.266667,?,0.733333,?,?,0.795455,0.81365,?,0.733333,0,0,0,0,0,0,20862,19253,4247,93.333333,70,?,?,?,?
haberman-weka.filters.unsupervised.attribute.Discretize-B10-M-1.0-Rfirst-last-precision6-weka.filters.unsupervised.attribute.NumericToNominal-Rfirst-last,4,8,weka.classifiers.lazy.IBk,'-K 1 -W 0 -A \"weka.core.neighboursearch.LinearNNSearch -A \\\"weka.core.EuclideanDistance -R first-last\\\"\"',-3080186098777067172,20260418.0439,276,30,23,7,0,76.666667,23.333333,0,0.255319,0.273395,0.45681,69.942172,103.299972,25.099248,49.64571,-24.546462,0.836642,1.654857,-0.818215,6.553667,0.218456,26.111008,0.954545,21,0.75,6,0.25,2,0.045455,1,0.777778,0.954545,0.857143,0.301511,0.661932,0.842624,0.766667,0.562121,0.437879,0.233333,0.748148,0.766667,0.725541,0.301511,0.661932,0.75512,0.61039,0.766667,0,0.001,0,0,0,0,20830,19253,4247,83.333333,66.666667,?,?,?,?
haberman-weka.filters.unsupervised.attribute.Discretize-B10-M-1.0-Rfirst-last-precision6-weka.filters.unsupervised.attribute.NumericToNominal-Rfirst-last,4,9,weka.classifiers.lazy.IBk,'-K 1 -W 0 -A \"weka.core.neighboursearch.LinearNNSearch -A \\\"weka.core.EuclideanDistance -R first-last\\\"\"',-3080186098777067172,20260418.0439,276,30,20,10,0,66.666667,33.333333,0,-0.119403,0.361857,0.477068,92.573341,107.880941,25.099248,36.444619,-11.345371,0.836642,1.214821,-0.378179,0.220856,0.007362,0.879929,0.909091,20,1,8,0,0,0.090909,2,0.714286,0.909091,0.8,-0.161165,0.696023,0.886914,0.666667,0.757576,0.242424,0.333333,0.52381,0.666667,0.586667,-0.161165,0.696023,0.755421,0.4,0.666667,0,0,0,0,0,0,20926,19253,4247,93.333333,83.333333,?,?,?,?
haberman-weka.filters.unsupervised.attribute.Discretize-B10-M-1.0-Rfirst-last-precision6-weka.filters.unsupervised.attribute.NumericToNominal-Rfirst-last,4,10,weka.classifiers.lazy.IBk,'-K 1 -W 0 -A \"weka.core.neighboursearch.LinearNNSearch -A \\\"weka.core.EuclideanDistance -R first-last\\\"\"',-3080186098777067172,20260418.0439,276,30,19,11,0,63.333333,36.666667,0,-0.170213,0.402314,0.550191,102.923214,124.41662,25.099248,62.038236,-36.938988,0.836642,2.067941,-1.2313,-3.730593,-0.124353,-14.863364,0.863636,19,1,8,0,0,0.136364,3,0.703704,0.863636,0.77551,-0.201008,0.420455,0.718077,0.633333,0.769697,0.230303,0.366667,0.516049,0.633333,0.568707,-0.201008,0.420455,0.591425,0.387755,0.633333,0,0,0,0,0,0,20838,19253,4247,83.333333,75,?,?,?,?
haberman-weka.filters.unsupervised.attribute.Discretize-B10-M-1.0-Rfirst-last-precision6-weka.filters.unsupervised.attribute.NumericToNominal-Rfirst-last,5,1,weka.classifiers.lazy.IBk,'-K 1 -W 0 -A \"weka.core.neighboursearch.LinearNNSearch -A \\\"weka.core.EuclideanDistance -R first-last\\\"\"',-3080186098777067172,20260418.0439,275,31,22,9,0,70.967742,29.032258,0,0.047782,0.336546,0.518562,86.888757,118.483996,25.547654,58.150817,-32.603163,0.824118,1.875833,-1.051715,0.227004,0.007323,0.88855,0.913043,21,0.875,7,0.125,1,0.086957,2,0.75,0.913043,0.823529,0.056305,0.627717,0.865322,0.709677,0.671634,0.328366,0.290323,0.642473,0.709677,0.657927,0.056305,0.627717,0.728445,0.502674,0.709677,0,0,0,0,0,0,20769,19192,4308,83.870968,66.129032,?,?,?,?
haberman-weka.filters.unsupervised.attribute.Discretize-B10-M-1.0-Rfirst-last-precision6-weka.filters.unsupervised.attribute.NumericToNominal-Rfirst-last,5,2,weka.classifiers.lazy.IBk,'-K 1 -W 0 -A \"weka.core.neighboursearch.LinearNNSearch -A \\\"weka.core.EuclideanDistance -R first-last\\\"\"',-3080186098777067172,20260418.0439,275,31,23,8,0,74.193548,25.806452,0,0.107914,0.3625,0.487516,93.589616,111.390481,25.547654,51.010326,-25.462671,0.824118,1.645494,-0.821376,-0.168052,-0.005421,-0.657798,0.956522,22,0.875,7,0.125,1,0.043478,1,0.758621,0.956522,0.846154,0.145201,0.570652,0.794485,0.741935,0.660414,0.339586,0.258065,0.69188,0.741935,0.679404,0.145201,0.570652,0.674846,0.523077,0.741935,0,0,0,0,0,0,20793,19192,4308,87.096774,79.032258,?,?,?,?
haberman-weka.filters.unsupervised.attribute.Discretize-B10-M-1.0-Rfirst-last-precision6-weka.filters.unsupervised.attribute.NumericToNominal-Rfirst-last,5,3,weka.classifiers.lazy.IBk,'-K 1 -W 0 -A \"weka.core.neighboursearch.LinearNNSearch -A \\\"weka.core.EuclideanDistance -R first-last\\\"\"',-3080186098777067172,20260418.0439,275,31,20,11,0,64.516129,35.483871,0,-0.163823,0.381362,0.53082,98.459354,121.284788,25.547654,59.154181,-33.606527,0.824118,1.908199,-1.084082,-2.329275,-0.075138,-9.117373,0.869565,20,1,8,0,0,0.130435,3,0.714286,0.869565,0.784314,-0.193047,0.529891,0.782795,0.645161,0.775596,0.224404,0.354839,0.529954,0.645161,0.58191,-0.193047,0.529891,0.655662,0.392157,0.645161,0,0.001,0,0,0,0,20801,19192,4308,83.870968,72.580645,?,?,?,?
haberman-weka.filters.unsupervised.attribute.Discretize-B10-M-1.0-Rfirst-last-precision6-weka.filters.unsupervised.attribute.NumericToNominal-Rfirst-last,5,4,weka.classifiers.lazy.IBk,'-K 1 -W 0 -A \"weka.core.neighboursearch.LinearNNSearch -A \\\"weka.core.EuclideanDistance -R first-last\\\"\"',-3080186098777067172,20260418.0439,275,31,19,12,0,61.290323,38.709677,0,-0.207792,0.416718,0.542651,107.587485,123.988102,25.547654,54.837471,-29.289816,0.824118,1.768951,-0.944833,-5.009406,-0.161594,-19.608087,0.826087,19,1,8,0,0,0.173913,4,0.703704,0.826087,0.76,-0.227002,0.470109,0.768332,0.612903,0.786816,0.213184,0.387097,0.522103,0.612903,0.563871,-0.227002,0.470109,0.636357,0.38,0.612903,0,0,0,0,0,0,20777,19192,4308,87.096774,82.258065,?,?,?,?
haberman-weka.filters.unsupervised.attribute.Discretize-B10-M-1.0-Rfirst-last-precision6-weka.filters.unsupervised.attribute.NumericToNominal-Rfirst-last,5,5,weka.classifiers.lazy.IBk,'-K 1 -W 0 -A \"weka.core.neighboursearch.LinearNNSearch -A \\\"weka.core.EuclideanDistance -R first-last\\\"\"',-3080186098777067172,20260418.0439,275,31,23,8,0,74.193548,25.806452,0,0.326087,0.347529,0.461521,89.72434,105.45092,25.547654,43.22843,-17.680776,0.824118,1.394465,-0.570348,0.712804,0.022994,2.790097,0.826087,19,0.5,4,0.5,4,0.173913,4,0.826087,0.826087,0.826087,0.326087,0.627717,0.799146,0.741935,0.415849,0.584151,0.258065,0.741935,0.741935,0.741935,0.326087,0.627717,0.714556,0.663043,0.741935,0,0,0,0,0,0,20777,19192,4308,90.322581,83.870968,?,?,?,?
haberman-weka.filters.unsupervised.attribute.Discretize-B10-M-1.0-Rfirst-last-precision6-weka.filters.unsupervised.attribute.NumericToNominal-Rfirst-last,5,6,weka.classifiers.lazy.IBk,'-K 1 -W 0 -A \"weka.core.neighboursearch.LinearNNSearch -A \\\"weka.core.EuclideanDistance -R first-last\\\"\"',-3080186098777067172,20260418.0439,275,31,22,9,0,70.967742,29.032258,0,0.1571,0.364165,0.521067,90.850905,114.595479,27.024229,58.198398,-31.17417,0.871749,1.877368,-1.005618,-0.186325,-0.00601,-0.689474,0.909091,20,0.777778,7,0.222222,2,0.090909,2,0.740741,0.909091,0.816327,0.177799,0.525253,0.746314,0.709677,0.578364,0.421636,0.290323,0.670848,0.709677,0.668659,0.177799,0.525253,0.66185,0.562009,0.709677,0,0,0,0,0,0,20769,19192,4308,83.870968,74.193548,?,?,?,?
haberman-weka.filters.unsupervised.attribute.Discretize-B10-M-1.0-Rfirst-last-precision6-weka.filters.unsupervised.attribute.NumericToNominal-Rfirst-last,5,7,weka.classifiers.lazy.IBk,'-K 1 -W 0 -A \"weka.core.neighboursearch.LinearNNSearch -A \\\"weka.core.EuclideanDistance -R first-last\\\"\"',-3080186098777067172,20260418.0439,276,30,19,11,0,63.333333,36.666667,0,-0.170213,0.377511,0.522305,96.578011,118.110521,25.099248,49.563736,-24.464488,0.836642,1.652125,-0.815483,-1.849843,-0.061661,-7.370115,0.863636,19,1,8,0,0,0.136364,3,0.703704,0.863636,0.77551,-0.201008,0.571023,0.844841,0.633333,0.769697,0.230303,0.366667,0.516049,0.633333,0.568707,-0.201008,0.571023,0.700743,0.387755,0.633333,0.001,0,0,0,0,0,21206,19253,4247,86.666667,76.666667,?,?,?,?
haberman-weka.filters.unsupervised.attribute.Discretize-B10-M-1.0-Rfirst-last-precision6-weka.filters.unsupervised.attribute.NumericToNominal-Rfirst-last,5,8,weka.classifiers.lazy.IBk,'-K 1 -W 0 -A \"weka.core.neighboursearch.LinearNNSearch -A \\\"weka.core.EuclideanDistance -R first-last\\\"\"',-3080186098777067172,20260418.0439,276,30,21,9,0,70,30,0,-0.062992,0.365521,0.531515,93.51067,120.193327,25.099248,62.18674,-37.087492,0.836642,2.072891,-1.23625,-1.11636,-0.037212,-4.447784,0.954545,21,1,8,0,0,0.045455,1,0.724138,0.954545,0.823529,-0.111979,0.497159,0.766074,0.7,0.745455,0.254545,0.3,0.531034,0.7,0.603922,-0.111979,0.497159,0.633277,0.411765,0.7,0,0,0,0,0,0,20822,19253,4247,80,68.333333,?,?,?,?
haberman-weka.filters.unsupervised.attribute.Discretize-B10-M-1.0-Rfirst-last-precision6-weka.filters.unsupervised.attribute.NumericToNominal-Rfirst-last,5,9,weka.classifiers.lazy.IBk,'-K 1 -W 0 -A \"weka.core.neighboursearch.LinearNNSearch -A \\\"weka.core.EuclideanDistance -R first-last\\\"\"',-3080186098777067172,20260418.0439,276,30,22,8,0,73.333333,26.666667,0,0.189189,0.300678,0.467656,76.921796,105.752685,25.099248,44.135137,-19.035889,0.836642,1.471171,-0.63453,3.676845,0.122562,14.649225,0.909091,20,0.75,6,0.25,2,0.090909,2,0.769231,0.909091,0.833333,0.206959,0.690341,0.865648,0.733333,0.574242,0.425758,0.266667,0.697436,0.733333,0.7,0.206959,0.690341,0.766578,0.583333,0.733333,0,0,0,0,0,0,20830,19253,4247,86.666667,70,?,?,?,?
haberman-weka.filters.unsupervised.attribute.Discretize-B10-M-1.0-Rfirst-last-precision6-weka.filters.unsupervised.attribute.NumericToNominal-Rfirst-last,5,10,weka.classifiers.lazy.IBk,'-K 1 -W 0 -A \"weka.core.neighboursearch.LinearNNSearch -A \\\"weka.core.EuclideanDistance -R first-last\\\"\"',-3080186098777067172,20260418.0439,276,30,22,8,0,73.333333,26.666667,0,0.189189,0.386279,0.512142,98.821063,115.812507,25.099248,52.607396,-27.508149,0.836642,1.75358,-0.916938,-2.352574,-0.078419,-9.373084,0.909091,20,0.75,6,0.25,2,0.090909,2,0.769231,0.909091,0.833333,0.206959,0.519886,0.751152,0.733333,0.574242,0.425758,0.266667,0.697436,0.733333,0.7,0.206959,0.519886,0.661113,0.583333,0.733333,0,0,0,0,0,0,20830,19253,4247,86.666667,80,?,?,?,?
haberman-weka.filters.unsupervised.attribute.Discretize-B10-M-1.0-Rfirst-last-precision6-weka.filters.unsupervised.attribute.NumericToNominal-Rfirst-last,6,1,weka.classifiers.lazy.IBk,'-K 1 -W 0 -A \"weka.core.neighboursearch.LinearNNSearch -A \\\"weka.core.EuclideanDistance -R first-last\\\"\"',-3080186098777067172,20260418.0439,275,31,23,8,0,74.193548,25.806452,0,0.107914,0.286451,0.435438,73.955432,99.491338,25.547654,34.288957,-8.741303,0.824118,1.106095,-0.281978,4.524876,0.145964,17.711514,0.956522,22,0.875,7,0.125,1,0.043478,1,0.758621,0.956522,0.846154,0.145201,0.690217,0.85569,0.741935,0.660414,0.339586,0.258065,0.69188,0.741935,0.679404,0.145201,0.690217,0.760066,0.523077,0.741935,0,0,0,0,0,0,20785,19192,4308,93.548387,74.193548,?,?,?,?
haberman-weka.filters.unsupervised.attribute.Discretize-B10-M-1.0-Rfirst-last-precision6-weka.filters.unsupervised.attribute.NumericToNominal-Rfirst-last,6,2,weka.classifiers.lazy.IBk,'-K 1 -W 0 -A \"weka.core.neighboursearch.LinearNNSearch -A \\\"weka.core.EuclideanDistance -R first-last\\\"\"',-3080186098777067172,20260418.0439,275,31,26,5,0,83.870968,16.129032,0,0.520124,0.239777,0.382923,61.905156,87.492371,25.547654,22.503367,3.044287,0.824118,0.725915,0.098203,7.913934,0.255288,30.977146,0.956522,22,0.5,4,0.5,4,0.043478,1,0.846154,0.956522,0.897959,0.543124,0.845109,0.948419,0.83871,0.382188,0.617812,0.16129,0.834243,0.83871,0.825037,0.543124,0.845109,0.862102,0.756672,0.83871,0,0,0,0.015625,0,15.625,20793,19192,4308,96.774194,72.580645,?,?,?,?
haberman-weka.filters.unsupervised.attribute.Discretize-B10-M-1.0-Rfirst-last-precision6-weka.filters.unsupervised.attribute.NumericToNominal-Rfirst-last,6,3,weka.classifiers.lazy.IBk,'-K 1 -W 0 -A \"weka.core.neighboursearch.LinearNNSearch -A \\\"weka.core.EuclideanDistance -R first-last\\\"\"',-3080186098777067172,20260418.0439,275,31,19,12,0,61.290323,38.709677,0,-0.207792,0.440612,0.577632,113.756224,131.980704,25.547654,67.901637,-42.353983,0.824118,2.190375,-1.366258,-7.34149,-0.236822,-28.736456,0.826087,19,1,8,0,0,0.173913,4,0.703704,0.826087,0.76,-0.227002,0.442935,0.775759,0.612903,0.786816,0.213184,0.387097,0.522103,0.612903,0.563871,-0.227002,0.442935,0.637472,0.38,0.612903,0,0,0,0,0,0,20793,19192,4308,80.645161,75.806452,?,?,?,?
haberman-weka.filters.unsupervised.attribute.Discretize-B10-M-1.0-Rfirst-last-precision6-weka.filters.unsupervised.attribute.NumericToNominal-Rfirst-last,6,4,weka.classifiers.lazy.IBk,'-K 1 -W 0 -A \"weka.core.neighboursearch.LinearNNSearch -A \\\"weka.core.EuclideanDistance -R first-last\\\"\"',-3080186098777067172,20260418.0439,275,31,19,12,0,61.290323,38.709677,0,-0.100592,0.4604,0.579016,118.86515,132.297036,25.547654,75.606197,-50.058543,0.824118,2.43891,-1.614792,-8.135045,-0.262421,-31.84263,0.782609,18,0.875,7,0.125,1,0.217391,5,0.72,0.782609,0.75,-0.102328,0.434783,0.693958,0.612903,0.705295,0.294705,0.387097,0.577204,0.612903,0.593318,-0.102328,0.434783,0.58246,0.446429,0.612903,0,0,0,0,0,0,20769,19192,4308,77.419355,77.419355,?,?,?,?
haberman-weka.filters.unsupervised.attribute.Discretize-B10-M-1.0-Rfirst-last-precision6-weka.filters.unsupervised.attribute.NumericToNominal-Rfirst-last,6,5,weka.classifiers.lazy.IBk,'-K 1 -W 0 -A \"weka.core.neighboursearch.LinearNNSearch -A \\\"weka.core.EuclideanDistance -R first-last\\\"\"',-3080186098777067172,20260418.0439,275,31,20,11,0,64.516129,35.483871,0,-0.163823,0.40459,0.553602,104.456219,126.49023,25.547654,67.313058,-41.765404,0.824118,2.171389,-1.347271,-3.747843,-0.120898,-14.670007,0.869565,20,1,8,0,0,0.130435,3,0.714286,0.869565,0.784314,-0.193047,0.48913,0.794368,0.645161,0.775596,0.224404,0.354839,0.529954,0.645161,0.58191,-0.193047,0.48913,0.660012,0.392157,0.645161,0,0,0,0,0,0,20769,19192,4308,80.645161,74.193548,?,?,?,?
haberman-weka.filters.unsupervised.attribute.Discretize-B10-M-1.0-Rfirst-last-precision6-weka.filters.unsupervised.attribute.NumericToNominal-Rfirst-last,6,6,weka.classifiers.lazy.IBk,'-K 1 -W 0 -A \"weka.core.neighboursearch.LinearNNSearch -A \\\"weka.core.EuclideanDistance -R first-last\\\"\"',-3080186098777067172,20260418.0439,275,31,22,9,0,70.967742,29.032258,0,0.085246,0.304079,0.472915,75.860621,104.005654,27.024229,46.529804,-19.505576,0.871749,1.500961,-0.629212,5.09141,0.164239,18.840167,0.954545,21,0.888889,8,0.111111,1,0.045455,1,0.724138,0.954545,0.823529,0.12131,0.729798,0.875374,0.709677,0.644021,0.355979,0.290323,0.659066,0.709677,0.637226,0.12131,0.729798,0.756596,0.502674,0.709677,0,0,0,0,0,0,20761,19192,4308,87.096774,69.354839,?,?,?,?
haberman-weka.filters.unsupervised.attribute.Discretize-B10-M-1.0-Rfirst-last-precision6-weka.filters.unsupervised.attribute.NumericToNominal-Rfirst-last,6,7,weka.classifiers.lazy.IBk,'-K 1 -W 0 -A \"weka.core.neighboursearch.LinearNNSearch -A \\\"weka.core.EuclideanDistance -R first-last\\\"\"',-3080186098777067172,20260418.0439,276,30,20,10,0,66.666667,33.333333,0,-0.119403,0.401825,0.501677,102.798139,113.445897,25.099248,55.245296,-30.146049,0.836642,1.84151,-1.004868,-2.079153,-0.069305,-8.283728,0.909091,20,1,8,0,0,0.090909,2,0.714286,0.909091,0.8,-0.161165,0.485795,0.70013,0.666667,0.757576,0.242424,0.333333,0.52381,0.666667,0.586667,-0.161165,0.485795,0.60662,0.4,0.666667,0,0,0,0,0,0,20838,19253,4247,86.666667,86.666667,?,?,?,?
haberman-weka.filters.unsupervised.attribute.Discretize-B10-M-1.0-Rfirst-last-precision6-weka.filters.unsupervised.attribute.NumericToNominal-Rfirst-last,6,8,weka.classifiers.lazy.IBk,'-K 1 -W 0 -A \"weka.core.neighboursearch.LinearNNSearch -A \\\"weka.core.EuclideanDistance -R first-last\\\"\"',-3080186098777067172,20260418.0439,276,30,23,7,0,76.666667,23.333333,0,0.255319,0.266417,0.377676,68.156935,85.405129,25.099248,17.232321,7.866927,0.836642,0.574411,0.262231,6.192868,0.206429,24.673519,0.954545,21,0.75,6,0.25,2,0.045455,1,0.777778,0.954545,0.857143,0.301511,0.798295,0.931045,0.766667,0.562121,0.437879,0.233333,0.748148,0.766667,0.725541,0.301511,0.798295,0.844022,0.61039,0.766667,0,0.001,0,0,0,0,20886,19253,4247,100,81.666667,?,?,?,?
haberman-weka.filters.unsupervised.attribute.Discretize-B10-M-1.0-Rfirst-last-precision6-weka.filters.unsupervised.attribute.NumericToNominal-Rfirst-last,6,9,weka.classifiers.lazy.IBk,'-K 1 -W 0 -A \"weka.core.neighboursearch.LinearNNSearch -A \\\"weka.core.EuclideanDistance -R first-last\\\"\"',-3080186098777067172,20260418.0439,276,30,22,8,0,73.333333,26.666667,0,0.104478,0.377663,0.542199,96.616811,122.609342,25.099248,62.838481,-37.739233,0.836642,2.094616,-1.257974,-2.671376,-0.089046,-10.643252,0.954545,21,0.875,7,0.125,1,0.045455,1,0.75,0.954545,0.84,0.141019,0.528409,0.798882,0.733333,0.653788,0.346212,0.266667,0.683333,0.733333,0.669333,0.141019,0.528409,0.669729,0.52,0.733333,0,0,0,0,0,0,20822,19253,4247,80,68.333333,?,?,?,?
haberman-weka.filters.unsupervised.attribute.Discretize-B10-M-1.0-Rfirst-last-precision6-weka.filters.unsupervised.attribute.NumericToNominal-Rfirst-last,6,10,weka.classifiers.lazy.IBk,'-K 1 -W 0 -A \"weka.core.neighboursearch.LinearNNSearch -A \\\"weka.core.EuclideanDistance -R first-last\\\"\"',-3080186098777067172,20260418.0439,276,30,21,9,0,70,30,0,-0.062992,0.354074,0.499332,90.582112,112.915701,25.099248,49.340653,-24.241405,0.836642,1.644688,-0.808047,-0.053833,-0.001794,-0.21448,0.954545,21,1,8,0,0,0.045455,1,0.724138,0.954545,0.823529,-0.111979,0.559659,0.816116,0.7,0.745455,0.254545,0.3,0.531034,0.7,0.603922,-0.111979,0.559659,0.676685,0.411765,0.7,0,0,0,0,0,0,20854,19253,4247,86.666667,75,?,?,?,?
haberman-weka.filters.unsupervised.attribute.Discretize-B10-M-1.0-Rfirst-last-precision6-weka.filters.unsupervised.attribute.NumericToNominal-Rfirst-last,7,1,weka.classifiers.lazy.IBk,'-K 1 -W 0 -A \"weka.core.neighboursearch.LinearNNSearch -A \\\"weka.core.EuclideanDistance -R first-last\\\"\"',-3080186098777067172,20260418.0439,275,31,22,9,0,70.967742,29.032258,0,0.047782,0.386215,0.520232,99.712317,118.865645,25.547654,51.414228,-25.866574,0.824118,1.658523,-0.834406,-2.857158,-0.092166,-11.183642,0.913043,21,0.875,7,0.125,1,0.086957,2,0.75,0.913043,0.823529,0.056305,0.548913,0.826227,0.709677,0.671634,0.328366,0.290323,0.642473,0.709677,0.657927,0.056305,0.548913,0.689443,0.502674,0.709677,0,0,0,0,0,0,20761,19192,4308,87.096774,79.032258,?,?,?,?
haberman-weka.filters.unsupervised.attribute.Discretize-B10-M-1.0-Rfirst-last-precision6-weka.filters.unsupervised.attribute.NumericToNominal-Rfirst-last,7,2,weka.classifiers.lazy.IBk,'-K 1 -W 0 -A \"weka.core.neighboursearch.LinearNNSearch -A \\\"weka.core.EuclideanDistance -R first-last\\\"\"',-3080186098777067172,20260418.0439,275,31,21,10,0,67.741935,32.258065,0,-0.115108,0.374903,0.52979,96.791679,121.049452,25.547654,66.219236,-40.671582,0.824118,2.136104,-1.311987,-2.003519,-0.06463,-7.842281,0.913043,21,1,8,0,0,0.086957,2,0.724138,0.913043,0.807692,-0.154881,0.421196,0.745996,0.677419,0.764376,0.235624,0.322581,0.537264,0.677419,0.599256,-0.154881,0.421196,0.614198,0.403846,0.677419,0,0,0,0,0,0,20777,19192,4308,80.645161,70.967742,?,?,?,?
haberman-weka.filters.unsupervised.attribute.Discretize-B10-M-1.0-Rfirst-last-precision6-weka.filters.unsupervised.attribute.NumericToNominal-Rfirst-last,7,3,weka.classifiers.lazy.IBk,'-K 1 -W 0 -A \"weka.core.neighboursearch.LinearNNSearch -A \\\"weka.core.EuclideanDistance -R first-last\\\"\"',-3080186098777067172,20260418.0439,275,31,24,7,0,77.419355,22.580645,0,0.259386,0.347141,0.482758,89.624149,110.303406,25.547654,42.665586,-17.117932,0.824118,1.376309,-0.552191,-0.438722,-0.014152,-1.717269,0.956522,22,0.75,6,0.25,2,0.043478,1,0.785714,0.956522,0.862745,0.305657,0.592391,0.83458,0.774194,0.567672,0.432328,0.225806,0.754992,0.774194,0.733943,0.305657,0.592391,0.71956,0.613191,0.774194,0,0,0,0,0,0,20769,19192,4308,90.322581,77.419355,?,?,?,?
haberman-weka.filters.unsupervised.attribute.Discretize-B10-M-1.0-Rfirst-last-precision6-weka.filters.unsupervised.attribute.NumericToNominal-Rfirst-last,7,4,weka.classifiers.lazy.IBk,'-K 1 -W 0 -A \"weka.core.neighboursearch.LinearNNSearch -A \\\"weka.core.EuclideanDistance -R first-last\\\"\"',-3080186098777067172,20260418.0439,275,31,23,8,0,74.193548,25.806452,0,0.107914,0.303481,0.459768,78.35202,105.050428,25.547654,42.889896,-17.342242,0.824118,1.383545,-0.559427,4.091121,0.131972,16.013687,0.956522,22,0.875,7,0.125,1,0.043478,1,0.758621,0.956522,0.846154,0.145201,0.605978,0.780205,0.741935,0.660414,0.339586,0.258065,0.69188,0.741935,0.679404,0.145201,0.605978,0.693571,0.523077,0.741935,0,0,0,0,0,0,20801,19192,4308,90.322581,75.806452,?,?,?,?
haberman-weka.filters.unsupervised.attribute.Discretize-B10-M-1.0-Rfirst-last-precision6-weka.filters.unsupervised.attribute.NumericToNominal-Rfirst-last,7,5,weka.classifiers.lazy.IBk,'-K 1 -W 0 -A \"weka.core.neighboursearch.LinearNNSearch -A \\\"weka.core.EuclideanDistance -R first-last\\\"\"',-3080186098777067172,20260418.0439,275,31,23,8,0,74.193548,25.806452,0,0.266272,0.304231,0.437581,78.545851,99.981024,25.547654,33.062219,-7.514565,0.824118,1.066523,-0.242405,3.627978,0.117032,14.200824,0.869565,20,0.625,5,0.375,3,0.130435,3,0.8,0.869565,0.833333,0.270868,0.722826,0.877335,0.741935,0.49737,0.50263,0.258065,0.722581,0.741935,0.728879,0.270868,0.722826,0.778477,0.630952,0.741935,0,0,0,0,0,0,20769,19192,4308,93.548387,75.806452,?,?,?,?
haberman-weka.filters.unsupervised.attribute.Discretize-B10-M-1.0-Rfirst-last-precision6-weka.filters.unsupervised.attribute.NumericToNominal-Rfirst-last,7,6,weka.classifiers.lazy.IBk,'-K 1 -W 0 -A \"weka.core.neighboursearch.LinearNNSearch -A \\\"weka.core.EuclideanDistance -R first-last\\\"\"',-3080186098777067172,20260418.0439,275,31,21,10,0,67.741935,32.258065,0,0.098837,0.353469,0.52174,88.182391,114.74356,27.024229,57.761333,-30.737105,0.871749,1.863269,-0.99152,0.578015,0.018646,2.138878,0.863636,19,0.777778,7,0.222222,2,0.136364,3,0.730769,0.863636,0.791667,0.105961,0.588384,0.782188,0.677419,0.591561,0.408439,0.322581,0.634739,0.677419,0.644777,0.105961,0.588384,0.662067,0.53869,0.677419,0,0.001,0,0,0,0,20817,19192,4308,83.870968,69.354839,?,?,?,?
haberman-weka.filters.unsupervised.attribute.Discretize-B10-M-1.0-Rfirst-last-precision6-weka.filters.unsupervised.attribute.NumericToNominal-Rfirst-last,7,7,weka.classifiers.lazy.IBk,'-K 1 -W 0 -A \"weka.core.neighboursearch.LinearNNSearch -A \\\"weka.core.EuclideanDistance -R first-last\\\"\"',-3080186098777067172,20260418.0439,276,30,17,13,0,56.666667,43.333333,0,-0.153846,0.40113,0.572696,102.620393,129.505715,25.099248,71.365261,-46.266013,0.836642,2.378842,-1.5422,-3.439412,-0.114647,-13.703248,0.727273,16,0.875,7,0.125,1,0.272727,6,0.695652,0.727273,0.711111,-0.154456,0.542614,0.760549,0.566667,0.714394,0.285606,0.433333,0.54824,0.566667,0.557037,-0.154456,0.542614,0.661831,0.422222,0.566667,0,0,0,0,0,0,20838,19253,4247,76.666667,66.666667,?,?,?,?
haberman-weka.filters.unsupervised.attribute.Discretize-B10-M-1.0-Rfirst-last-precision6-weka.filters.unsupervised.attribute.NumericToNominal-Rfirst-last,7,8,weka.classifiers.lazy.IBk,'-K 1 -W 0 -A \"weka.core.neighboursearch.LinearNNSearch -A \\\"weka.core.EuclideanDistance -R first-last\\\"\"',-3080186098777067172,20260418.0439,276,30,21,9,0,70,30,0,0.042553,0.399143,0.501102,102.111977,113.315789,25.099248,42.854279,-17.755031,0.836642,1.428476,-0.591834,-3.537098,-0.117903,-14.092445,0.909091,20,0.875,7,0.125,1,0.090909,2,0.740741,0.909091,0.816327,0.050252,0.605114,0.821602,0.7,0.665909,0.334091,0.3,0.632099,0.7,0.647124,0.050252,0.605114,0.688415,0.499072,0.7,0,0,0,0,0,0,20862,19253,4247,90,83.333333,?,?,?,?
haberman-weka.filters.unsupervised.attribute.Discretize-B10-M-1.0-Rfirst-last-precision6-weka.filters.unsupervised.attribute.NumericToNominal-Rfirst-last,7,9,weka.classifiers.lazy.IBk,'-K 1 -W 0 -A \"weka.core.neighboursearch.LinearNNSearch -A \\\"weka.core.EuclideanDistance -R first-last\\\"\"',-3080186098777067172,20260418.0439,276,30,21,9,0,70,30,0,-0.062992,0.369513,0.522126,94.531865,118.070012,25.099248,52.622665,-27.523418,0.836642,1.754089,-0.917447,-1.848284,-0.061609,-7.363902,0.954545,21,1,8,0,0,0.045455,1,0.724138,0.954545,0.823529,-0.111979,0.460227,0.75932,0.7,0.745455,0.254545,0.3,0.531034,0.7,0.603922,-0.111979,0.460227,0.627709,0.411765,0.7,0,0,0,0,0,0,20838,19253,4247,86.666667,75,?,?,?,?
haberman-weka.filters.unsupervised.attribute.Discretize-B10-M-1.0-Rfirst-last-precision6-weka.filters.unsupervised.attribute.NumericToNominal-Rfirst-last,7,10,weka.classifiers.lazy.IBk,'-K 1 -W 0 -A \"weka.core.neighboursearch.LinearNNSearch -A \\\"weka.core.EuclideanDistance -R first-last\\\"\"',-3080186098777067172,20260418.0439,276,30,22,8,0,73.333333,26.666667,0,0.189189,0.349459,0.494805,89.401493,111.891978,25.099248,54.630629,-29.531381,0.836642,1.821021,-0.984379,0.925443,0.030848,3.687135,0.909091,20,0.75,6,0.25,2,0.090909,2,0.769231,0.909091,0.833333,0.206959,0.571023,0.771469,0.733333,0.574242,0.425758,0.266667,0.697436,0.733333,0.7,0.206959,0.571023,0.670953,0.583333,0.733333,0,0,0,0,0,0,20878,19253,4247,83.333333,75,?,?,?,?
haberman-weka.filters.unsupervised.attribute.Discretize-B10-M-1.0-Rfirst-last-precision6-weka.filters.unsupervised.attribute.NumericToNominal-Rfirst-last,8,1,weka.classifiers.lazy.IBk,'-K 1 -W 0 -A \"weka.core.neighboursearch.LinearNNSearch -A \\\"weka.core.EuclideanDistance -R first-last\\\"\"',-3080186098777067172,20260418.0439,275,31,22,9,0,70.967742,29.032258,0,-0.060837,0.362345,0.50134,93.549467,114.549027,25.547654,50.214456,-24.666802,0.824118,1.619821,-0.795703,-0.586965,-0.018934,-2.29753,0.956522,22,1,8,0,0,0.043478,1,0.733333,0.956522,0.830189,-0.107676,0.578804,0.840157,0.709677,0.753156,0.246844,0.290323,0.544086,0.709677,0.615946,-0.107676,0.578804,0.700973,0.415094,0.709677,0,0,0,0,0,0,20801,19192,4308,87.096774,77.419355,?,?,?,?
haberman-weka.filters.unsupervised.attribute.Discretize-B10-M-1.0-Rfirst-last-precision6-weka.filters.unsupervised.attribute.NumericToNominal-Rfirst-last,8,2,weka.classifiers.lazy.IBk,'-K 1 -W 0 -A \"weka.core.neighboursearch.LinearNNSearch -A \\\"weka.core.EuclideanDistance -R first-last\\\"\"',-3080186098777067172,20260418.0439,275,31,22,9,0,70.967742,29.032258,0,0.047782,0.350496,0.518385,90.490416,118.443529,25.547654,64.30428,-38.756626,0.824118,2.074332,-1.250214,-0.002803,-0.00009,-0.010973,0.913043,21,0.875,7,0.125,1,0.086957,2,0.75,0.913043,0.823529,0.056305,0.494565,0.723282,0.709677,0.671634,0.328366,0.290323,0.642473,0.709677,0.657927,0.056305,0.494565,0.611849,0.502674,0.709677,0,0,0,0,0,0,20777,19192,4308,80.645161,70.967742,?,?,?,?
haberman-weka.filters.unsupervised.attribute.Discretize-B10-M-1.0-Rfirst-last-precision6-weka.filters.unsupervised.attribute.NumericToNominal-Rfirst-last,8,3,weka.classifiers.lazy.IBk,'-K 1 -W 0 -A \"weka.core.neighboursearch.LinearNNSearch -A \\\"weka.core.EuclideanDistance -R first-last\\\"\"',-3080186098777067172,20260418.0439,275,31,23,8,0,74.193548,25.806452,0,0.194805,0.309249,0.472013,79.841397,107.848283,25.547654,42.794718,-17.247064,0.824118,1.380475,-0.556357,2.344476,0.075628,9.176875,0.913043,21,0.75,6,0.25,2,0.086957,2,0.777778,0.913043,0.84,0.212814,0.61413,0.79316,0.741935,0.578892,0.421108,0.258065,0.706093,0.741935,0.709247,0.212814,0.61413,0.711992,0.586667,0.741935,0,0.001,0,0,0,0,20793,19192,4308,90.322581,72.580645,?,?,?,?
haberman-weka.filters.unsupervised.attribute.Discretize-B10-M-1.0-Rfirst-last-precision6-weka.filters.unsupervised.attribute.NumericToNominal-Rfirst-last,8,4,weka.classifiers.lazy.IBk,'-K 1 -W 0 -A \"weka.core.neighboursearch.LinearNNSearch -A \\\"weka.core.EuclideanDistance -R first-last\\\"\"',-3080186098777067172,20260418.0439,275,31,21,10,0,67.741935,32.258065,0,-0.115108,0.392943,0.526706,101.449117,120.344943,25.547654,56.392079,-30.844425,0.824118,1.819099,-0.994981,-3.499788,-0.112896,-13.699059,0.913043,21,1,8,0,0,0.086957,2,0.724138,0.913043,0.807692,-0.154881,0.415761,0.737153,0.677419,0.764376,0.235624,0.322581,0.537264,0.677419,0.599256,-0.154881,0.415761,0.608486,0.403846,0.677419,0,0,0,0,0,0,20865,19192,4308,87.096774,77.419355,?,?,?,?
haberman-weka.filters.unsupervised.attribute.Discretize-B10-M-1.0-Rfirst-last-precision6-weka.filters.unsupervised.attribute.NumericToNominal-Rfirst-last,8,5,weka.classifiers.lazy.IBk,'-K 1 -W 0 -A \"weka.core.neighboursearch.LinearNNSearch -A \\\"weka.core.EuclideanDistance -R first-last\\\"\"',-3080186098777067172,20260418.0439,275,31,25,6,0,80.645161,19.354839,0,0.330935,0.301574,0.46376,77.859865,105.962682,25.547654,48.065112,-22.517457,0.824118,1.550487,-0.72637,2.842298,0.091687,11.125474,1,23,0.75,6,0.25,2,0,0,0.793103,1,0.884615,0.445282,0.576087,0.809997,0.806452,0.556452,0.443548,0.193548,0.846496,0.806452,0.759553,0.445282,0.576087,0.721618,0.642308,0.806452,0,0,0,0,0,0,20777,19192,4308,87.096774,69.354839,?,?,?,?
haberman-weka.filters.unsupervised.attribute.Discretize-B10-M-1.0-Rfirst-last-precision6-weka.filters.unsupervised.attribute.NumericToNominal-Rfirst-last,8,6,weka.classifiers.lazy.IBk,'-K 1 -W 0 -A \"weka.core.neighboursearch.LinearNNSearch -A \\\"weka.core.EuclideanDistance -R first-last\\\"\"',-3080186098777067172,20260418.0439,275,31,19,12,0,61.290323,38.709677,0,-0.169811,0.388517,0.500873,96.926158,110.15442,27.024229,34.153154,-7.128925,0.871749,1.101715,-0.229965,-2.82801,-0.091226,-10.464721,0.863636,19,1,9,0,0,0.136364,3,0.678571,0.863636,0.76,-0.209359,0.570707,0.838294,0.612903,0.749267,0.250733,0.387097,0.481567,0.612903,0.539355,-0.209359,0.570707,0.686347,0.38,0.612903,0,0,0,0,0,0,20769,19192,4308,96.774194,82.258065,?,?,?,?
haberman-weka.filters.unsupervised.attribute.Discretize-B10-M-1.0-Rfirst-last-precision6-weka.filters.unsupervised.attribute.NumericToNominal-Rfirst-last,8,7,weka.classifiers.lazy.IBk,'-K 1 -W 0 -A \"weka.core.neighboursearch.LinearNNSearch -A \\\"weka.core.EuclideanDistance -R first-last\\\"\"',-3080186098777067172,20260418.0439,276,30,19,11,0,63.333333,36.666667,0,-0.064516,0.426886,0.579554,109.209363,131.056612,25.099248,76.142012,-51.042765,0.836642,2.538067,-1.701425,-3.953945,-0.131798,-15.753241,0.818182,18,0.875,7,0.125,1,0.181818,4,0.72,0.818182,0.765957,-0.06742,0.497159,0.792762,0.633333,0.690152,0.309848,0.366667,0.581333,0.633333,0.602728,-0.06742,0.497159,0.663339,0.459902,0.633333,0,0,0,0,0,0,20838,19253,4247,73.333333,73.333333,?,?,?,?
haberman-weka.filters.unsupervised.attribute.Discretize-B10-M-1.0-Rfirst-last-precision6-weka.filters.unsupervised.attribute.NumericToNominal-Rfirst-last,8,8,weka.classifiers.lazy.IBk,'-K 1 -W 0 -A \"weka.core.neighboursearch.LinearNNSearch -A \\\"weka.core.EuclideanDistance -R first-last\\\"\"',-3080186098777067172,20260418.0439,276,30,22,8,0,73.333333,26.666667,0,0.189189,0.339289,0.503038,86.799772,113.753677,25.099248,57.158521,-32.059273,0.836642,1.905284,-1.068642,1.222438,0.040748,4.870416,0.909091,20,0.75,6,0.25,2,0.090909,2,0.769231,0.909091,0.833333,0.206959,0.5625,0.760087,0.733333,0.574242,0.425758,0.266667,0.697436,0.733333,0.7,0.206959,0.5625,0.653181,0.583333,0.733333,0,0,0,0,0,0,20854,19253,4247,83.333333,71.666667,?,?,?,?
haberman-weka.filters.unsupervised.attribute.Discretize-B10-M-1.0-Rfirst-last-precision6-weka.filters.unsupervised.attribute.NumericToNominal-Rfirst-last,8,9,weka.classifiers.lazy.IBk,'-K 1 -W 0 -A \"weka.core.neighboursearch.LinearNNSearch -A \\\"weka.core.EuclideanDistance -R first-last\\\"\"',-3080186098777067172,20260418.0439,276,30,20,10,0,66.666667,33.333333,0,0.074074,0.389634,0.51216,99.679495,115.816477,25.099248,49.937021,-24.837774,0.836642,1.664567,-0.827926,-2.808288,-0.09361,-11.188732,0.818182,18,0.75,6,0.25,2,0.181818,4,0.75,0.818182,0.782609,0.075378,0.559659,0.820392,0.666667,0.598485,0.401515,0.333333,0.638889,0.666667,0.650104,0.075378,0.559659,0.70937,0.534161,0.666667,0,0,0,0,0,0,20838,19253,4247,86.666667,78.333333,?,?,?,?
haberman-weka.filters.unsupervised.attribute.Discretize-B10-M-1.0-Rfirst-last-precision6-weka.filters.unsupervised.attribute.NumericToNominal-Rfirst-last,8,10,weka.classifiers.lazy.IBk,'-K 1 -W 0 -A \"weka.core.neighboursearch.LinearNNSearch -A \\\"weka.core.EuclideanDistance -R first-last\\\"\"',-3080186098777067172,20260418.0439,276,30,21,9,0,70,30,0,0.129032,0.403002,0.557128,103.099387,125.985314,25.099248,72.675362,-47.576114,0.836642,2.422512,-1.58587,-2.124783,-0.070826,-8.465523,0.863636,19,0.75,6,0.25,2,0.136364,3,0.76,0.863636,0.808511,0.13484,0.448864,0.769042,0.7,0.586364,0.413636,0.3,0.664,0.7,0.674959,0.13484,0.448864,0.637285,0.558101,0.7,0,0,0,0,0,0,20830,19253,4247,76.666667,73.333333,?,?,?,?
haberman-weka.filters.unsupervised.attribute.Discretize-B10-M-1.0-Rfirst-last-precision6-weka.filters.unsupervised.attribute.NumericToNominal-Rfirst-last,9,1,weka.classifiers.lazy.IBk,'-K 1 -W 0 -A \"weka.core.neighboursearch.LinearNNSearch -A \\\"weka.core.EuclideanDistance -R first-last\\\"\"',-3080186098777067172,20260418.0439,275,31,22,9,0,70.967742,29.032258,0,0.136223,0.328931,0.46923,84.922779,107.212374,25.547654,42.70266,-17.155006,0.824118,1.377505,-0.553387,0.919303,0.029655,3.598383,0.869565,20,0.75,6,0.25,2,0.130435,3,0.769231,0.869565,0.816327,0.142247,0.578804,0.7943,0.709677,0.590112,0.409888,0.290323,0.673945,0.709677,0.685066,0.142247,0.578804,0.70139,0.562009,0.709677,0,0,0,0,0,0,20761,19192,4308,90.322581,74.193548,?,?,?,?
haberman-weka.filters.unsupervised.attribute.Discretize-B10-M-1.0-Rfirst-last-precision6-weka.filters.unsupervised.attribute.NumericToNominal-Rfirst-last,9,2,weka.classifiers.lazy.IBk,'-K 1 -W 0 -A \"weka.core.neighboursearch.LinearNNSearch -A \\\"weka.core.EuclideanDistance -R first-last\\\"\"',-3080186098777067172,20260418.0439,275,31,19,12,0,61.290323,38.709677,0,-0.207792,0.445722,0.577632,115.075606,131.980603,25.547654,78.557655,-53.010001,0.824118,2.534118,-1.71,-6.482331,-0.209107,-25.373487,0.826087,19,1,8,0,0,0.173913,4,0.703704,0.826087,0.76,-0.227002,0.366848,0.686325,0.612903,0.786816,0.213184,0.387097,0.522103,0.612903,0.563871,-0.227002,0.366848,0.570382,0.38,0.612903,0,0,0,0,0,0,20801,19192,4308,77.419355,77.419355,?,?,?,?
haberman-weka.filters.unsupervised.attribute.Discretize-B10-M-1.0-Rfirst-last-precision6-weka.filters.unsupervised.attribute.NumericToNominal-Rfirst-last,9,3,weka.classifiers.lazy.IBk,'-K 1 -W 0 -A \"weka.core.neighboursearch.LinearNNSearch -A \\\"weka.core.EuclideanDistance -R first-last\\\"\"',-3080186098777067172,20260418.0439,275,31,22,9,0,70.967742,29.032258,0,0.136223,0.338137,0.462951,87.299518,105.77779,25.547654,35.306981,-9.759327,0.824118,1.138935,-0.314817,0.365113,0.011778,1.429146,0.869565,20,0.75,6,0.25,2,0.130435,3,0.769231,0.869565,0.816327,0.142247,0.668478,0.871011,0.709677,0.590112,0.409888,0.290323,0.673945,0.709677,0.685066,0.142247,0.668478,0.768303,0.562009,0.709677,0,0,0,0,0,0,20793,19192,4308,93.548387,79.032258,?,?,?,?
haberman-weka.filters.unsupervised.attribute.Discretize-B10-M-1.0-Rfirst-last-precision6-weka.filters.unsupervised.attribute.NumericToNominal-Rfirst-last,9,4,weka.classifiers.lazy.IBk,'-K 1 -W 0 -A \"weka.core.neighboursearch.LinearNNSearch -A \\\"weka.core.EuclideanDistance -R first-last\\\"\"',-3080186098777067172,20260418.0439,275,31,23,8,0,74.193548,25.806452,0,0.107914,0.345004,0.44339,89.072513,101.308347,25.547654,30.591864,-5.04421,0.824118,0.986834,-0.162716,0.159893,0.005158,0.625863,0.956522,22,0.875,7,0.125,1,0.043478,1,0.758621,0.956522,0.846154,0.145201,0.625,0.838414,0.741935,0.660414,0.339586,0.258065,0.69188,0.741935,0.679404,0.145201,0.625,0.729653,0.523077,0.741935,0,0,0,0,0,0,20793,19192,4308,96.774194,85.483871,?,?,?,?
haberman-weka.filters.unsupervised.attribute.Discretize-B10-M-1.0-Rfirst-last-precision6-weka.filters.unsupervised.attribute.NumericToNominal-Rfirst-last,9,5,weka.classifiers.lazy.IBk,'-K 1 -W 0 -A \"weka.core.neighboursearch.LinearNNSearch -A \\\"weka.core.EuclideanDistance -R first-last\\\"\"',-3080186098777067172,20260418.0439,275,31,24,7,0,77.419355,22.580645,0,0.259386,0.323325,0.4284,83.475303,97.883412,25.547654,33.124329,-7.576675,0.824118,1.068527,-0.244409,2.73963,0.088375,10.723606,0.956522,22,0.75,6,0.25,2,0.043478,1,0.785714,0.956522,0.862745,0.305657,0.703804,0.851785,0.774194,0.567672,0.432328,0.225806,0.754992,0.774194,0.733943,0.305657,0.703804,0.761962,0.613191,0.774194,0,0,0,0,0,0,20809,19192,4308,93.548387,82.258065,?,?,?,?
haberman-weka.filters.unsupervised.attribute.Discretize-B10-M-1.0-Rfirst-last-precision6-weka.filters.unsupervised.attribute.NumericToNominal-Rfirst-last,9,6,weka.classifiers.lazy.IBk,'-K 1 -W 0 -A \"weka.core.neighboursearch.LinearNNSearch -A \\\"weka.core.EuclideanDistance -R first-last\\\"\"',-3080186098777067172,20260418.0439,275,31,23,8,0,74.193548,25.806452,0,0.220126,0.356128,0.528708,88.845703,116.276057,27.024229,64.662831,-37.638603,0.871749,2.085898,-1.214148,0.03953,0.001275,0.146276,0.954545,21,0.777778,7,0.222222,2,0.045455,1,0.75,0.954545,0.84,0.271391,0.570707,0.788548,0.741935,0.565168,0.434832,0.258065,0.725806,0.741935,0.692903,0.271391,0.570707,0.687228,0.586667,0.741935,0,0,0,0,0,0,20793,19192,4308,80.645161,67.741935,?,?,?,?
haberman-weka.filters.unsupervised.attribute.Discretize-B10-M-1.0-Rfirst-last-precision6-weka.filters.unsupervised.attribute.NumericToNominal-Rfirst-last,9,7,weka.classifiers.lazy.IBk,'-K 1 -W 0 -A \"weka.core.neighboursearch.LinearNNSearch -A \\\"weka.core.EuclideanDistance -R first-last\\\"\"',-3080186098777067172,20260418.0439,276,30,21,9,0,70,30,0,-0.062992,0.376822,0.510311,96.401656,115.398416,25.099248,50.04652,-24.947272,0.836642,1.668217,-0.831576,-1.638347,-0.054612,-6.527476,0.954545,21,1,8,0,0,0.045455,1,0.724138,0.954545,0.823529,-0.111979,0.565341,0.830865,0.7,0.745455,0.254545,0.3,0.531034,0.7,0.603922,-0.111979,0.565341,0.688177,0.411765,0.7,0,0,0,0,0,0,20822,19253,4247,86.666667,76.666667,?,?,?,?
haberman-weka.filters.unsupervised.attribute.Discretize-B10-M-1.0-Rfirst-last-precision6-weka.filters.unsupervised.attribute.NumericToNominal-Rfirst-last,9,8,weka.classifiers.lazy.IBk,'-K 1 -W 0 -A \"weka.core.neighboursearch.LinearNNSearch -A \\\"weka.core.EuclideanDistance -R first-last\\\"\"',-3080186098777067172,20260418.0439,276,30,21,9,0,70,30,0,-0.062992,0.300593,0.457685,76.900168,103.497899,25.099248,35.362102,-10.262855,0.836642,1.178737,-0.342095,4.354646,0.145155,17.349708,0.954545,21,1,8,0,0,0.045455,1,0.724138,0.954545,0.823529,-0.111979,0.761364,0.885351,0.7,0.745455,0.254545,0.3,0.531034,0.7,0.603922,-0.111979,0.761364,0.7836,0.411765,0.7,0,0.001,0,0,0,0,21158,19253,4247,93.333333,76.666667,?,?,?,?
haberman-weka.filters.unsupervised.attribute.Discretize-B10-M-1.0-Rfirst-last-precision6-weka.filters.unsupervised.attribute.NumericToNominal-Rfirst-last,9,9,weka.classifiers.lazy.IBk,'-K 1 -W 0 -A \"weka.core.neighboursearch.LinearNNSearch -A \\\"weka.core.EuclideanDistance -R first-last\\\"\"',-3080186098777067172,20260418.0439,276,30,21,9,0,70,30,0,0.129032,0.345844,0.513464,88.476575,116.111336,25.099248,54.77024,-29.670992,0.836642,1.825675,-0.989033,0.926464,0.030882,3.691202,0.863636,19,0.75,6,0.25,2,0.136364,3,0.76,0.863636,0.808511,0.13484,0.647727,0.820888,0.7,0.586364,0.413636,0.3,0.664,0.7,0.674959,0.13484,0.647727,0.698936,0.558101,0.7,0,0,0,0,0,0,20822,19253,4247,83.333333,71.666667,?,?,?,?
haberman-weka.filters.unsupervised.attribute.Discretize-B10-M-1.0-Rfirst-last-precision6-weka.filters.unsupervised.attribute.NumericToNominal-Rfirst-last,9,10,weka.classifiers.lazy.IBk,'-K 1 -W 0 -A \"weka.core.neighboursearch.LinearNNSearch -A \\\"weka.core.EuclideanDistance -R first-last\\\"\"',-3080186098777067172,20260418.0439,276,30,22,8,0,73.333333,26.666667,0,0.189189,0.310777,0.474619,79.505624,107.327105,25.099248,43.999153,-18.899905,0.836642,1.466638,-0.629997,3.321802,0.110727,13.234669,0.909091,20,0.75,6,0.25,2,0.090909,2,0.769231,0.909091,0.833333,0.206959,0.710227,0.875436,0.733333,0.574242,0.425758,0.266667,0.697436,0.733333,0.7,0.206959,0.710227,0.757945,0.583333,0.733333,0,0,0,0.015625,0,15.625,20822,19253,4247,86.666667,71.666667,?,?,?,?
haberman-weka.filters.unsupervised.attribute.Discretize-B10-M-1.0-Rfirst-last-precision6-weka.filters.unsupervised.attribute.NumericToNominal-Rfirst-last,10,1,weka.classifiers.lazy.IBk,'-K 1 -W 0 -A \"weka.core.neighboursearch.LinearNNSearch -A \\\"weka.core.EuclideanDistance -R first-last\\\"\"',-3080186098777067172,20260418.0439,275,31,23,8,0,74.193548,25.806452,0,0.107914,0.325362,0.447703,84.001211,102.293725,25.547654,35.605648,-10.057994,0.824118,1.148569,-0.324451,1.998255,0.06446,7.821676,0.956522,22,0.875,7,0.125,1,0.043478,1,0.758621,0.956522,0.846154,0.145201,0.673913,0.870867,0.741935,0.660414,0.339586,0.258065,0.69188,0.741935,0.679404,0.145201,0.673913,0.745299,0.523077,0.741935,0,0,0,0,0,0,20769,19192,4308,93.548387,82.258065,?,?,?,?
haberman-weka.filters.unsupervised.attribute.Discretize-B10-M-1.0-Rfirst-last-precision6-weka.filters.unsupervised.attribute.NumericToNominal-Rfirst-last,10,2,weka.classifiers.lazy.IBk,'-K 1 -W 0 -A \"weka.core.neighboursearch.LinearNNSearch -A \\\"weka.core.EuclideanDistance -R first-last\\\"\"',-3080186098777067172,20260418.0439,275,31,23,8,0,74.193548,25.806452,0,0,0.310903,0.429589,80.268368,98.155039,25.547654,32.808485,-7.260831,0.824118,1.058338,-0.23422,3.227628,0.104117,12.633755,1,23,1,8,0,0,0,0,0.741935,1,0.851852,?,0.709239,0.875897,0.741935,0.741935,0.258065,0.258065,?,0.741935,?,?,0.709239,0.756111,?,0.741935,0,0.001,0,0,0,0,20817,19192,4308,93.548387,79.032258,?,?,?,?
haberman-weka.filters.unsupervised.attribute.Discretize-B10-M-1.0-Rfirst-last-precision6-weka.filters.unsupervised.attribute.NumericToNominal-Rfirst-last,10,3,weka.classifiers.lazy.IBk,'-K 1 -W 0 -A \"weka.core.neighboursearch.LinearNNSearch -A \\\"weka.core.EuclideanDistance -R first-last\\\"\"',-3080186098777067172,20260418.0439,275,31,20,11,0,64.516129,35.483871,0,-0.163823,0.425763,0.57144,109.922674,130.56598,25.547654,75.287047,-49.739392,0.824118,2.428614,-1.604497,-5.6529,-0.182352,-22.126883,0.869565,20,1,8,0,0,0.130435,3,0.714286,0.869565,0.784314,-0.193047,0.328804,0.692222,0.645161,0.775596,0.224404,0.354839,0.529954,0.645161,0.58191,-0.193047,0.328804,0.570505,0.392157,0.645161,0,0,0,0,0,0,20801,19192,4308,77.419355,75.806452,?,?,?,?
haberman-weka.filters.unsupervised.attribute.Discretize-B10-M-1.0-Rfirst-last-precision6-weka.filters.unsupervised.attribute.NumericToNominal-Rfirst-last,10,4,weka.classifiers.lazy.IBk,'-K 1 -W 0 -A \"weka.core.neighboursearch.LinearNNSearch -A \\\"weka.core.EuclideanDistance -R first-last\\\"\"',-3080186098777067172,20260418.0439,275,31,24,7,0,77.419355,22.580645,0,0.259386,0.332299,0.503723,85.792171,115.093606,25.547654,61.16652,-35.618866,0.824118,1.973114,-1.148996,1.637557,0.052824,6.409812,0.956522,22,0.75,6,0.25,2,0.043478,1,0.785714,0.956522,0.862745,0.305657,0.48913,0.770757,0.774194,0.567672,0.432328,0.225806,0.754992,0.774194,0.733943,0.305657,0.48913,0.658343,0.613191,0.774194,0,0,0,0,0,0,20769,19192,4308,80.645161,69.354839,?,?,?,?
haberman-weka.filters.unsupervised.attribute.Discretize-B10-M-1.0-Rfirst-last-precision6-weka.filters.unsupervised.attribute.NumericToNominal-Rfirst-last,10,5,weka.classifiers.lazy.IBk,'-K 1 -W 0 -A \"weka.core.neighboursearch.LinearNNSearch -A \\\"weka.core.EuclideanDistance -R first-last\\\"\"',-3080186098777067172,20260418.0439,275,31,21,10,0,67.741935,32.258065,0,-0.006494,0.417388,0.557559,107.760445,127.394294,25.547654,72.769431,-47.221777,0.824118,2.347401,-1.523283,-4.916064,-0.158583,-19.242722,0.869565,20,0.875,7,0.125,1,0.130435,3,0.740741,0.869565,0.8,-0.007094,0.42663,0.692013,0.677419,0.682854,0.317146,0.322581,0.614098,0.677419,0.636559,-0.007094,0.42663,0.581078,0.483333,0.677419,0,0,0,0,0,0,20769,19192,4308,77.419355,74.193548,?,?,?,?
haberman-weka.filters.unsupervised.attribute.Discretize-B10-M-1.0-Rfirst-last-precision6-weka.filters.unsupervised.attribute.NumericToNominal-Rfirst-last,10,6,weka.classifiers.lazy.IBk,'-K 1 -W 0 -A \"weka.core.neighboursearch.LinearNNSearch -A \\\"weka.core.EuclideanDistance -R first-last\\\"\"',-3080186098777067172,20260418.0439,275,31,21,10,0,67.741935,32.258065,0,0.025157,0.429056,0.576266,107.039608,126.735183,27.024229,80.283978,-53.25975,0.871749,2.589806,-1.718056,-5.226969,-0.168612,-19.341787,0.909091,20,0.888889,8,0.111111,1,0.090909,2,0.714286,0.909091,0.8,0.031016,0.373737,0.666474,0.677419,0.657217,0.342783,0.322581,0.603687,0.677419,0.616129,0.031016,0.373737,0.553765,0.483333,0.677419,0,0.001,0,0,0,0,20777,19192,4308,77.419355,72.580645,?,?,?,?
haberman-weka.filters.unsupervised.attribute.Discretize-B10-M-1.0-Rfirst-last-precision6-weka.filters.unsupervised.attribute.NumericToNominal-Rfirst-last,10,7,weka.classifiers.lazy.IBk,'-K 1 -W 0 -A \"weka.core.neighboursearch.LinearNNSearch -A \\\"weka.core.EuclideanDistance -R first-last\\\"\"',-3080186098777067172,20260418.0439,276,30,23,7,0,76.666667,23.333333,0,0.173228,0.254478,0.386007,65.102712,87.289019,25.099248,17.686903,7.412344,0.836642,0.589563,0.247078,7.091108,0.23637,28.252271,1,22,0.875,7,0.125,1,0,0,0.758621,1,0.862745,0.307941,0.832386,0.942983,0.766667,0.641667,0.358333,0.233333,0.822989,0.766667,0.691939,0.307941,0.832386,0.853173,0.542484,0.766667,0,0,0,0,0,0,20854,19253,4247,100,76.666667,?,?,?,?
haberman-weka.filters.unsupervised.attribute.Discretize-B10-M-1.0-Rfirst-last-precision6-weka.filters.unsupervised.attribute.NumericToNominal-Rfirst-last,10,8,weka.classifiers.lazy.IBk,'-K 1 -W 0 -A \"weka.core.neighboursearch.LinearNNSearch -A \\\"weka.core.EuclideanDistance -R first-last\\\"\"',-3080186098777067172,20260418.0439,276,30,24,6,0,80,20,0,0.328358,0.254482,0.351737,65.103711,79.539555,25.099248,15.486674,9.612573,0.836642,0.516222,0.320419,7.757877,0.258596,30.908803,1,22,0.75,6,0.25,2,0,0,0.785714,1,0.88,0.443203,0.863636,0.950334,0.8,0.55,0.45,0.2,0.842857,0.8,0.752,0.443203,0.863636,0.876375,0.64,0.8,0,0,0,0,0,0,20878,19253,4247,100,80,?,?,?,?
haberman-weka.filters.unsupervised.attribute.Discretize-B10-M-1.0-Rfirst-last-precision6-weka.filters.unsupervised.attribute.NumericToNominal-Rfirst-last,10,9,weka.classifiers.lazy.IBk,'-K 1 -W 0 -A \"weka.core.neighboursearch.LinearNNSearch -A \\\"weka.core.EuclideanDistance -R first-last\\\"\"',-3080186098777067172,20260418.0439,276,30,21,9,0,70,30,0,0.129032,0.359922,0.499146,92.078192,112.873655,25.099248,47.778117,-22.678869,0.836642,1.592604,-0.755962,-0.260652,-0.008688,-1.038486,0.863636,19,0.75,6,0.25,2,0.136364,3,0.76,0.863636,0.808511,0.13484,0.647727,0.844297,0.7,0.586364,0.413636,0.3,0.664,0.7,0.674959,0.13484,0.647727,0.717706,0.558101,0.7,0,0,0,0,0,0,20870,19253,4247,86.666667,75,?,?,?,?
haberman-weka.filters.unsupervised.attribute.Discretize-B10-M-1.0-Rfirst-last-precision6-weka.filters.unsupervised.attribute.NumericToNominal-Rfirst-last,10,10,weka.classifiers.lazy.IBk,'-K 1 -W 0 -A \"weka.core.neighboursearch.LinearNNSearch -A \\\"weka.core.EuclideanDistance -R first-last\\\"\"',-3080186098777067172,20260418.0439,276,30,18,12,0,60,40,0,-0.022727,0.418838,0.542822,107.150564,122.750189,25.099248,47.564508,-22.465261,0.836642,1.585484,-0.748842,-4.896368,-0.163212,-19.508026,0.727273,16,0.75,6,0.25,2,0.272727,6,0.727273,0.727273,0.727273,-0.022727,0.585227,0.850973,0.6,0.622727,0.377273,0.4,0.6,0.6,0.6,-0.022727,0.585227,0.706125,0.488636,0.6,0,0.001,0,0,0,0,20854,19253,4247,90,81.666667,?,?,?,?
